NumberOfAtoms 461
SpinPolarized yes
#FixSpin .true.
#TotalSpin 
NumberOfSpecies 4

 
MD.TypeOfRun  nose
MD.FinalTimeStep 21
MD.LengthTimeStep 0.5  fs
MD.InitialTemperature 300 K 
MD.TargetTemperature  300  K


%block ChemicalSpeciesLabel
1  6  C
2  1  H
3  7  N
4  8  O
%endblock ChemicalSpeciesLabel

PAO.BasisSize szp 
 PAO.EnergyShift 0.02 Ry 
 
MeshCutoff          100 Ry
MaxSCFIterations    100  
DM.NumberPulay       3  
DM.Tolerance         1e-3
WriteDenchar	.true.

%block ProjectedDensityOfStates
-10.0 10.0 0.200 500 eV
%endblock ProjectedDensityOfStates
NetCharge 0.00

%block BandLines
1  1.000  1.000 1.000  L
20 0.00   0.00   0.00  \Gamma
25 2.00   0.000  0.00  X
30 2.00   2.00   2.00  \Gamma
%endblock BandLines


LongOutput .true.
WriteCoorXmol .true.
LatticeConstant 1 Ang
%block LatticeVectors
  47.993079 0.0 0.0
  0.0 45.868359 0.0
  0.0 0.0 47.750349
%endblock LatticeVectors


 

#UseSaveData .true.  
%block kgrid_Monkhorst_Pack
1 0 0 0.0 
 0 1 0 0.0 
 0 0 1 0.0 

%endblock kgrid_Monkhorst_Pack
WriteMDXmol .true.
AtomicCoordinatesFormat Ang
%block AtomicCoordinatesAndAtomicSpecies
39.058938  12.069706 1.209966  1 
37.868802  11.374035 1.771758  1 
37.834626  10.153597 2.331455  1 
39.038667  9.243915 2.446409  1 
36.555804  9.561718 2.850592  1 
35.659235  10.423213 3.752121  1 
34.498464  9.637078 4.392968  1 
34.839032  8.632650 5.534248  1 
33.553122  7.914916 5.954690  1 
35.945176  7.616056 5.193134  1 
36.203336  6.503581 6.227151  1 
37.329715  5.601575 5.701058  1 
37.745533  4.447773 6.633624  1 
36.596129  3.459399 6.851994  1 
39.046558  3.718841 6.191955  1 
39.048211  2.970362 4.841504  1 
38.964982  3.869890 3.607298  1 
38.798183  3.158970 2.256475  1 
37.586771  2.222190 2.244891  1 
38.622209  4.225269 1.165635  1 
38.996778  13.139148 1.428353  2 
39.081642  11.934398 0.125411  2 
39.993930  11.704843 1.634527  2 
36.934789  11.939182 1.700121  2 
39.785352  9.435118 1.671496  2 
38.753379  8.192046 2.340905  2 
39.513172  9.369571 3.427920  2 
36.886916  8.700974 3.406218  2 
35.970281  9.144852 2.021816  2 
35.214798  11.220034 3.139823  2 
36.241749  10.921996 4.534980  2 
33.925388  9.138421 3.601575  2 
33.811896  10.383516 4.822897  2 
35.184493  9.224250 6.391714  2 
33.204089  7.235629 5.172692  2 
32.752481  8.634884 6.166706  2 
33.711123  7.335833 6.869217  2 
36.893795  8.162419 5.169593  2 
35.745035  7.158546 4.224694  2 
35.295833  5.901599 6.353354  2 
36.470720  6.935387 7.197054  2 
38.203065  6.203649 5.441784  2 
36.898755  5.179748 4.794755  2 
37.979062  4.902277 7.609241  2 
36.885389  2.425875 6.640432  2 
35.726382  3.686005 6.228521  2 
36.270011  3.494097 7.897380  2 
39.273921  2.974307 6.967987  2 
39.886271  4.425222 6.214015  2 
38.247230  2.226432 4.843172  2 
39.987374  2.403724 4.776351  2 
39.831910  4.539354 3.586589  2 
38.100221  4.513959 3.664057  2 
39.704371  2.582182 2.036500  2 
37.853668  1.240525 2.649512  2 
37.208500  2.067013 1.227747  2 
36.759417  2.619359 2.845104  2 
37.669073  4.764372 1.290500  2 
38.617300  3.766369 0.176094  2 
39.428096  4.962740 1.196502  2 
17.303113  35.983028 37.422955  1 
17.314670  36.979808 37.502351  1 
16.462576  37.478698 37.660577  1 
15.598921  36.980817 37.739408  1 
14.746823  37.479716 37.897636  1 
13.883168  36.981835 37.976467  1 
13.031074  37.480725 38.134693  1 
12.167419  36.982844 38.213524  1 
11.315321  37.481743 38.371751  1 
10.451665  36.983862 38.450582  1 
9.599572  37.482752 38.608808  1 
8.735917  36.984871 38.687639  1 
7.883818  37.483770 38.845867  1 
7.020163  36.985888 38.924698  1 
6.168070  37.484779 39.082924  1 
5.304415  36.986898 39.161755  1 
4.452316  37.485797 39.319982  1 
3.588661  36.987915 39.398813  1 
2.736567  37.486806 39.557039  1 
1.872912  36.988924 39.635870  1 
1.020814  37.487823 39.794097  1 
0.157159  36.989942 39.872928  1 
37.379564  35.507041 16.226143  1 
37.771502  36.483332 15.163379  1 
38.789094  37.345573 15.430780  3 
39.172155  38.242199 14.495968  1 
38.600755  38.368628 13.240749  1 
37.549558  37.491421 12.939748  1 
36.713463  37.294846 11.794113  1 
36.624494  37.906823 10.526566  1 
35.664230  37.459024 9.611686  1 
34.799796  36.418155 9.942296  1 
34.867832  35.794907 11.191478  1 
35.833877  36.256038 12.093493  1 
36.123842  35.838523 13.370180  3 
35.639686  35.093445 13.848634  2 
37.158730  36.568425 13.908274  1 
37.999832  35.629370 17.119384  2 
37.502022  34.483209 15.859748  2 
36.333786  35.659928 16.509843  2 
39.991707  38.889998 14.795482  2 
38.953057  39.108884 12.533746  2 
37.293782  38.719000 10.259166  2 
35.593989  37.929516 8.634012  2 
34.060206  36.084130 9.217996  2 
34.192266  34.984614 11.445256  2 
28.081197  9.229624 10.321316  1 
27.224994  8.884363 11.551939  1 
27.713287  7.554725 12.136008  1 
27.299309  10.023449 12.589017  1 
26.853651  11.359292 12.173051  3 
25.663542  11.881428 11.779261  1 
25.562444  13.112354 11.790532  4 
24.452468  10.990194 11.440804  1 
23.712269  11.519221 10.181377  1 
24.629286  11.463032 8.951962  1 
22.429028  10.734349 9.867935  1 
23.596258  11.036707 12.625100  3 
23.665573  10.258529 13.746197  1 
23.122493  10.665472 14.770030  4 
24.485856  8.946541 13.728505  1 
23.698898  7.828654 14.469526  1 
22.377120  7.507521 13.763611  1 
24.513413  6.535498 14.603446  1 
25.719983  9.248897 14.453243  3 
26.900053  9.783364 14.060616  1 
27.650614  10.177145 14.962083  4 
28.024778  8.433545 9.571120  2 
29.135665  9.355343 10.593290  2 
27.741045  10.155410 9.846457  2 
26.212368  8.717925 11.191650  2 
28.724675  7.644682 12.545602  2 
27.728301  6.775328 11.366201  2 
27.051466  7.207679 12.933940  2 
28.386776  10.181946 12.692338  2 
27.475450  12.107665 12.466652  2 
24.756008  9.971727 11.249803  2 
23.423488  12.566662 10.337875  2 
24.897931  10.430441 8.703141  2 
25.553431  12.025288 9.114077  2 
24.131720  11.901163 8.079765  2 
22.610103  9.654596 9.834329  2 
22.022200  11.031320 8.893178  2 
21.650598  10.929427 10.612250  2 
23.163875  11.934699 12.826098  2 
24.714785  8.616904 12.719882  2 
23.458989  8.167114 15.486923  2 
22.550615  7.126318 12.751994  2 
21.733190  8.389031 13.691893  2 
21.820483  6.745607 14.320992  2 
24.842950  6.168942 13.625894  2 
23.912413  5.746969 15.071170  2 
25.397220  6.682766 15.232223  2 
25.609396  9.352026 15.458308  2 
1.967197  26.381387 4.558265  1 
2.692211  25.334803 4.972779  1 
3.616253  25.399868 6.181465  1 
3.350327  26.191795 7.460509  1 
3.348894  27.628766 7.307988  1 
4.620596  28.072710 6.673253  1 
4.428332  29.620653 6.394421  1 
2.931264  29.958988 5.404566  1 
1.485116  29.919343 5.945572  1 
1.017039  30.499270 7.317037  1 
1.704236  30.165899 8.678358  1 
3.029189  30.855886 9.136680  1 
4.261058  30.635068 8.333289  1 
4.218280  31.455817 6.584375  1 
4.990602  30.899284 4.954309  1 
4.578548  30.960498 3.441590  1 
5.534240  30.179360 2.513329  1 
2.736010  24.221932 4.114044  4 
3.106987  22.920379 4.613117  1 
1.847139  22.089881 5.029872  1 
0.871224  21.502420 4.000307  1 
4.003845  22.120322 3.626120  1 
5.377984  22.559801 3.340937  4 
6.367967  22.480622 4.293316  1 
6.146047  22.425710 5.493995  4 
7.785206  22.570110 3.666697  1 
8.880476  21.457710 3.800846  1 
9.535622  21.110603 5.160518  1 
10.611446  19.988321 5.074490  1 
11.294147  19.585136 6.408751  1 
10.445848  18.997900 7.543314  1 
9.259997  19.798731 8.166397  1 
9.052566  21.132096 8.923304  1 
9.193432  22.487551 8.909588  1 
9.869404  23.628039 8.130920  1 
9.036918  24.778949 7.435843  1 
9.944819  25.923742 6.847871  1 
9.176594  27.087360 6.192610  1 
10.077760  28.153738 5.527568  1 
9.355702  29.305928 4.804551  1 
8.578929  28.888453 3.556573  1 
7.404996  27.949263 3.761554  1 
1.962409  27.312843 5.081760  2 
1.399591  26.394963 3.637524  2 
4.587629  25.714713 5.784426  2 
3.739566  24.422829 6.614726  2 
4.189341  26.019885 8.148379  2 
2.425960  25.913838 7.961001  2 
3.173840  28.060524 8.286804  2 
2.495511  27.953758 6.746719  2 
4.797367  27.693971 5.663682  2 
5.523388  27.968707 7.301206  2 
5.643752  29.593145 6.262345  2 
5.307750  30.284335 6.946865  2 
2.964617  29.417822 4.465138  2 
2.849776  31.084084 5.025613  2 
1.234786  28.883738 5.893035  2 
0.829587  30.359147 5.148353  2 
0.000851  30.083978 7.406711  2 
0.879667  31.587911 7.264055  2 
1.697932  29.079663 8.792104  2 
1.010402  30.479793 9.469784  2 
3.306822  30.472232 10.137999  2 
2.968049  31.920428 9.092815  2 
4.296043  29.532089 8.435211  2 
5.257550  30.770872 8.760799  2 
4.088788  32.567345 6.615951  2 
3.068772  31.212918 6.794869  2 
4.951216  29.702670 4.729063  2 
6.086613  30.854420 5.034407  2 
4.561203  32.007940 3.280821  2 
3.635323  30.487741 3.122334  2 
6.507853  30.654843 2.521205  2 
5.130258  30.152277 1.499539  2 
5.619394  29.120590 2.764526  2 
3.701451  23.020253 5.511282  2 
1.251030  22.684483 5.731670  2 
2.223532  21.225386 5.590677  2 
0.475307  22.221507 3.279082  2 
0.002076  21.094743 4.541988  2 
1.307167  20.656527 3.456725  2 
3.505902  22.081468 2.650686  2 
4.083848  21.090822 3.990944  2 
8.205701  23.538937 3.958408  2 
7.612868  22.647726 2.582310  2 
9.708059  21.788929 3.156300  2 
8.499865  20.531648 3.357529  2 
8.742472  20.785834 5.820701  2 
10.010283  21.994379 5.595336  2 
11.416701  20.321012 4.399137  2 
10.194123  19.091534 4.596418  2 
11.874360  20.419814 6.806979  2 
12.041916  18.810853 6.147554  2 
11.118288  18.622762 8.333582  2 
10.009118  18.059751 7.146421  2 
8.881653  19.054735 8.898525  2 
8.462935  19.775614 7.424675  2 
8.431318  20.854927 9.794142  2 
8.697415  22.944632 9.779502  2 
10.591239  23.223087 7.423555  2 
10.454707  24.158084 8.899536  2 
8.329883  25.238105 8.141187  2 
8.438150  24.350336 6.622927  2 
10.595034  25.483774 6.081144  2 
10.580443  26.354182 7.624648  2 
8.496334  27.583212 6.893241  2 
8.569410  26.586983 5.461458  2 
10.765356  27.684974 4.812794  2 
10.695819  28.604928 6.312409  2 
10.114569  30.037622 4.474057  2 
8.712985  29.860711 5.499056  2 
9.260052  28.444417 2.826373  2 
8.208802  29.804756 3.088742  2 
7.640545  26.951651 4.090428  2 
6.943631  27.727424 2.798648  2 
6.681563  28.366001 4.465068  2 
4.097628  4.058933 8.489379  1 
3.101639  4.050084 8.578463  1 
2.679716  4.128555 9.481692  1 
3.253781  4.215874 10.295837  1 
2.831858  4.294345 11.199066  1 
3.405914  4.381663 12.013207  1 
2.983990  4.460134 12.916436  1 
3.558056  4.547453 13.730582  1 
3.136132  4.625924 14.633811  1 
3.710197  4.713243 15.447956  1 
3.288274  4.791714 16.351185  1 
3.862330  4.879032 17.165326  1 
3.440407  4.957503 18.068555  1 
4.014472  5.044822 18.882700  1 
3.592548  5.123293 19.785930  1 
4.166605  5.210611 20.600071  1 
3.744681  5.289082 21.503300  1 
4.318746  5.376401 22.317445  1 
3.896823  5.454872 23.220674  1 
4.470879  5.542190 24.034815  1 
4.048956  5.620661 24.938044  1 
4.623021  5.707980 25.752189  1 
4.201097  5.786451 26.655419  4 
5.619001  5.716828 25.663101  1 
6.193066  5.804148 26.477246  1 
5.771142  5.882618 27.380476  1 
6.345199  5.969937 28.194617  1 
5.923275  6.048408 29.097846  1 
6.497340  6.135727 29.911991  1 
6.075417  6.214197 30.815220  1 
6.649473  6.301516 31.629361  1 
6.227550  6.379987 32.532590  1 
6.801615  6.467306 33.346735  4 
11.393716  12.186835 30.324297  1 
12.633329  13.028285 30.610422  1 
12.404966  14.522343 30.322514  1 
13.586577  15.468052 30.578305  1 
14.109418  16.211754 29.501961  1 
13.597540  15.974606 28.249141  4 
15.125379  17.187914 29.669756  1 
15.640591  17.957493 28.602830  1 
16.655065  18.888008 28.825816  1 
17.137349  19.079320 30.117354  1 
16.642984  18.372254 31.201937  1 
17.138386  18.615648 32.418829  3 
16.681972  17.908724 33.485936  1 
17.343987  18.250567 34.806627  1 
16.704374  19.411182 35.607703  1 
15.248792  19.152220 36.002990  1 
17.523423  19.682866 36.877290  1 
15.680271  16.909718 33.369618  1 
15.183255  16.158729 34.462013  1 
14.125601  15.255685 34.319734  1 
13.530020  14.525422 35.509768  1 
11.993775  14.702053 35.649584  1 
11.377886  13.993445 36.883589  1 
9.863497  14.232920 37.009309  1 
11.607947  12.483035 36.833100  1 
13.651780  15.022211 33.031732  1 
14.114514  15.697433 31.885273  1 
15.146252  16.670829 32.078886  1 
15.630073  17.403835 30.970176  1 
11.511892  11.191497 30.767341  2 
11.243122  12.059897 29.248583  2 
10.490175  12.633537 30.753404  2 
13.478597  12.648440 30.027538  2 
12.890072  12.849111 31.654103  2 
11.556108  14.897936 30.908577  2 
12.073498  14.599565 29.279954  2 
14.351417  15.893184 27.640930  2 
15.258313  17.852654 27.594037  2 
17.062371  19.462955 27.996857  2 
17.930086  19.809312 30.285012  2 
18.382538  18.539742 34.574160  2 
17.447704  17.361965 35.431641  2 
16.730275  20.322515 34.996749  2 
15.108598  18.141856 36.393402  2 
14.583525  19.292237 35.145260  2 
14.918894  19.837099 36.791444  2 
17.453106  18.848920 37.584773  2 
17.158261  20.582758 37.385552  2 
18.580602  19.843177 36.642703  2 
15.599572  16.287708 35.452538  2 
14.013115  14.867252 36.433046  2 
13.782075  13.464354 35.397354  2 
11.500791  14.315455 34.748967  2 
11.760531  15.774128 35.690171  2 
11.851173  14.388782 37.791061  2 
9.345134  14.072632 36.057994  2 
9.642860  15.246631 37.357858  2 
9.420596  13.542563 37.739768  2 
11.184319  12.057344 35.917101  2 
11.130365  11.988355 37.686000  2 
12.671533  12.238445 36.874227  2 
12.862514  14.280419 32.945913  2 
22.586463  18.151528 4.777204  1 
22.035860  19.460323 4.775936  1 
22.911029  20.561285 4.570851  1 
24.287039  20.392787 4.406276  1 
24.805348  19.102612 4.526350  1 
23.992642  17.943152 4.692303  1 
21.725477  17.024768 4.873731  1 
20.348713  17.264570 5.088148  1 
19.836457  18.500110 5.140319  3 
20.638103  19.582919 4.960958  1 
24.529716  16.611896 4.765983  1 
23.651346  15.492940 4.783018  1 
22.233878  15.709471 4.797285  1 
21.288540  14.648850 4.786577  1 
19.931656  14.855103 5.039965  1 
19.505498  16.165290 5.301665  1 
19.002081  13.650441 5.187351  1 
17.733539  13.951437 6.020446  1 
17.853854  15.197103 6.910630  1 
18.161745  16.379237 5.968746  1 
25.928429  16.341946 4.850633  1 
26.477058  15.056357 4.980153  1 
25.601840  13.983840 4.956972  1 
24.228752  14.196405 4.847675  1 
19.884138  20.906837 4.958116  1 
19.175254  21.244650 6.291681  1 
20.177047  21.374680 7.439304  1 
18.374748  22.551724 6.193033  1 
25.189533  21.572716 4.069895  1 
25.403728  21.768884 2.549532  1 
26.324907  22.959722 2.169562  1 
27.749787  22.808727 2.706694  1 
26.384711  23.167483 0.646806  1 
18.886387  15.012731 8.053584  1 
19.012485  16.229159 8.981469  1 
20.064065  16.032617 10.078700  1 
19.755228  14.864091 11.000759  1 
18.623634  13.075535 3.801061  1 
17.842964  11.765748 3.869790  1 
26.094046  12.718068 5.086424  4 
27.965491  14.883189 5.180374  1 
28.746038  14.784789 3.868581  1 
30.242275  14.620185 4.107913  1 
22.525820  21.574455 4.535692  2 
25.885521  19.003234 4.458711  2 
21.607478  13.622077 4.655474  2 
19.564127  12.882784 5.738361  2 
17.464808  13.069348 6.616038  2 
16.883275  14.116958 5.343502  2 
16.874745  15.369223 7.376645  2 
18.151622  17.301275 6.557993  2 
17.385019  16.479283 5.202714  2 
26.639662  17.167649 4.873620  2 
23.592188  13.317204 4.857387  2 
19.131084  20.842587 4.160053  2 
20.525269  21.743950 4.674672  2 
18.467174  20.442517 6.536404  2 
20.894826  22.178433 7.242303  2 
20.733630  20.445784 7.590159  2 
19.660918  21.605669 8.377297  2 
19.025462  23.406747 5.977425  2 
17.864231  22.760145 7.141515  2 
17.608805  22.499266 5.412973  2 
26.149341  21.429515 4.580218  2 
24.754181  22.485550 4.493579  2 
24.423230  21.933857 2.083199  2 
25.800742  20.845315 2.108356  2 
25.900766  23.874866 2.600545  2 
28.202266  21.863316 2.389931  2 
27.764673  22.853304 3.798970  2 
28.390344  23.622552 2.345462  2 
26.731009  22.270113 0.122579  2 
27.072820  23.983629 0.391015  2 
25.402161  23.439720 0.247775  2 
19.883628  14.784227 7.662360  2 
18.589365  14.134421 8.637199  2 
18.040589  16.450992 9.437000  2 
19.305669  17.115167 8.406946  2 
20.125590  16.949872 10.677049  2 
21.051504  15.886870 9.624267  2 
18.755402  14.962944 11.434671  2 
20.482152  14.821716 11.817108  2 
19.808741  13.910356 10.467661  2 
19.525151  12.902273 3.200376  2 
18.026035  13.812704 3.249042  2 
18.462747  10.961931 4.279006  2 
17.522741  11.465645 2.866007  2 
16.943206  11.853226 4.485647  2 
25.350992  12.096323 5.164032  2 
28.155939  13.999516 5.802077  2 
28.339076  15.732312 5.768109  2 
28.582518  15.687616 3.268580  2 
28.384529  13.936638 3.275599  2 
30.642096  15.442189 4.710769  2 
30.778831  14.612224 3.153280  2 
30.460516  13.679126 4.623371  2 
 %endblock AtomicCoordinatesAndAtomicSpecies

