NumberOfAtoms 116
SpinPolarized yes
#FixSpin .true.
#TotalSpin 
NumberOfSpecies 4

 
MD.TypeOfRun  nose
MD.FinalTimeStep 10
MD.LengthTimeStep 1.0  fs
MD.InitialTemperature 300 K 
MD.TargetTemperature  300  K


%block ChemicalSpeciesLabel
1  6  C
2  7  N
3  1  H
4  8  O
%endblock ChemicalSpeciesLabel

PAO.BasisSize dzp 
 PAO.EnergyShift 0.02 Ry 
 
MeshCutoff          100 Ry
MaxSCFIterations    100  
DM.NumberPulay       3  
DM.Tolerance         1e-3
WriteDenchar	.true.

%block ProjectedDensityOfStates
-10.0 10.0 0.200 500 eV
%endblock ProjectedDensityOfStates
NetCharge 0.00

%block BandLines
1  1.000  1.000 1.000  L
20 0.00   0.00   0.00  \Gamma
25 2.00   0.000  0.00  X
30 2.00   2.00   2.00  \Gamma
%endblock BandLines


LongOutput .true.
WriteCoorXmol .true.
LatticeConstant 1 Ang
%block LatticeVectors
  31.226333 0.0 0.0
  0.0 37.170986 0.0
  0.0 0.0 23.467498
%endblock LatticeVectors


 

#UseSaveData .true.  
%block kgrid_Monkhorst_Pack
1 0 0 0.0 
 0 1 0 0.0 
 0 0 1 0.0 

%endblock kgrid_Monkhorst_Pack
WriteMDXmol .true.
AtomicCoordinatesFormat Ang
%block AtomicCoordinatesAndAtomicSpecies
24.945772  1.034278 2.248846  1 
26.163106  1.773723 1.766518  1 
27.130056  1.080687 1.033691  1 
28.240429  1.769002 0.585870  1 
28.451560  3.081442 0.807362  2 
27.525604  3.759629 1.505980  1 
27.727636  5.117117 1.717625  1 
26.810774  5.899594 2.422943  1 
25.667832  5.313461 2.946384  1 
25.442844  3.950995 2.753091  1 
26.356448  3.154457 2.022610  1 
24.949622  -0.008779 1.914354  3 
24.036973  1.498541 1.852426  3 
24.910291  1.030675 3.342959  3 
27.023968  0.024913 0.808108  3 
29.014848  1.267955 0.012151  3 
28.624281  5.581035 1.313307  3 
26.995374  6.961959 2.558128  3 
24.949360  5.912435 3.499756  3 
24.540734  3.515816 3.174848  3 
10.556615  22.433155 7.329675  1 
9.614651  22.957691 6.405731  1 
9.282714  22.179177 5.263876  1 
9.877569  20.941370 5.013155  1 
10.880339  20.511197 5.883223  1 
11.243410  21.213008 7.069823  1 
10.830682  23.137627 8.533340  1 
10.233598  24.407879 8.703367  1 
9.386081  24.926797 7.806636  2 
9.048859  24.222462 6.694218  1 
12.243086  20.739081 7.987517  1 
12.448084  21.413708 9.223131  1 
11.701156  22.603966 9.508943  1 
11.825055  23.321467 10.728999  1 
11.282684  24.595370 10.904743  1 
10.585188  25.164829 9.829612  1 
11.603308  25.380836 12.176469  1 
11.467095  26.912307 12.003593  1 
11.502654  27.379794 10.541137  1 
10.341680  26.660528 9.824077  1 
13.080734  19.616958 7.712523  1 
14.101612  19.167296 8.564652  1 
14.254638  19.819248 9.776419  1 
13.441231  20.903281 10.101598  1 
8.005556  24.914871 5.826279  1 
8.462949  26.267086 5.228502  1 
9.672375  26.091004 4.309903  1 
7.338664  26.943242 4.429890  1 
9.422058  20.070843 3.849293  1 
8.324167  19.051080 4.237343  1 
7.840077  18.141244 3.075922  1 
8.951570  17.257922 2.505027  1 
6.664332  17.248260 3.506889  1 
12.888750  27.158759 9.880574  1 
12.969440  27.641058 8.425429  1 
14.337779  27.377972 7.787621  1 
15.476905  28.087625 8.501632  1 
10.740233  24.884188 13.361366  1 
11.127450  25.496862 14.704647  1 
15.239412  19.417211 10.630697  4 
15.011784  18.041172 8.129979  1 
14.476048  16.654903 8.491895  1 
15.413311  15.544752 8.031244  1 
8.547587  22.532168 4.548949  3 
11.374111  19.575839 5.633186  3 
12.417965  22.929141 11.546134  3 
12.659241  25.184613 12.411647  3 
12.238743  27.421017 12.595877  3 
10.508139  27.243396 12.427128  3 
11.302261  28.459239 10.531605  3 
10.273016  27.049360 8.803506  3 
9.386705  26.877349 10.315127  3 
12.983585  19.087017 6.764953  3 
13.623974  21.387030 11.056005  3 
7.125114  25.085308 6.461805  3 
7.650618  24.271422 5.018727  3 
8.741254  26.945972 6.044801  3 
9.431869  25.430984 3.469329  3 
10.523751  25.665977 4.848325  3 
9.989644  27.056227 3.900925  3 
7.027307  26.330923 3.576014  3 
7.677930  27.908500 4.033835  3 
6.459071  27.135064 5.052331  3 
10.299290  19.556961 3.438738  3 
9.046576  20.717406 3.047248  3 
7.457631  19.607917 4.618270  3 
8.675378  18.425782 5.068540  3 
7.473698  18.782769 2.265156  3 
9.428781  16.655480 3.284906  3 
9.718866  17.861177 2.012467  3 
8.552832  16.570026 1.749434  3 
6.919086  16.619636 4.367087  3 
6.361623  16.580409 2.689968  3 
5.788515  17.850354 3.769898  3 
13.180839  26.103285 9.901007  3 
13.636974  27.684314 10.484071  3 
12.738530  28.711341 8.375670  3 
12.221935  27.124192 7.812951  3 
14.310667  27.712487 6.743338  3 
14.536333  26.299571 7.767244  3 
15.282776  29.162207 8.574350  3 
16.414950  27.943284 7.957686  3 
15.622296  27.692771 9.511394  3 
10.809370  23.793161 13.453333  3 
9.683559  25.107560 13.164356  3 
12.126879  25.171415 15.009502  3 
10.420197  25.181663 15.479649  3 
11.115317  26.590329 14.678533  3 
15.286603  20.040894 11.374681  3 
16.011239  18.185254 8.558925  3 
15.154554  18.108350 7.043190  3 
13.494265  16.501798 8.028755  3 
14.334473  16.574860 9.575974  3 
15.593159  15.597289 6.952412  3 
14.975545  14.565342 8.251238  3 
16.379415  15.603148 8.543252  3 
 %endblock AtomicCoordinatesAndAtomicSpecies

