NumberOfAtoms 1941
SpinPolarized yes
#FixSpin .true.
#TotalSpin 
NumberOfSpecies 4

 


%block ChemicalSpeciesLabel
1  6  c
2  1  h
3  7  n
4  8  o
%endblock ChemicalSpeciesLabel

PAO.BasisSize szp 
 PAO.EnergyShift 0.02 Ry 
 
MeshCutoff          100 Ry
MaxSCFIterations    100  
DM.NumberPulay       3  
DM.Tolerance         1e-3
WriteDenchar	.true.

%block ProjectedDensityOfStates
-10.0 10.0 0.200 500 eV
%endblock ProjectedDensityOfStates
NetCharge 0.00

%block BandLines
1  1.000  1.000 1.000  L
20 0.00   0.00   0.00  \Gamma
25 2.00   0.000  0.00  X
30 2.00   2.00   2.00  \Gamma
%endblock BandLines


LongOutput .true.
WriteCoorXmol .true.
LatticeConstant 1 Ang
%block LatticeVectors
  58.085806 0.0 0.0
  0.0 56.986067 0.0
  0.0 0.0 58.080925
%endblock LatticeVectors


 

#UseSaveData .true.  
%block kgrid_Monkhorst_Pack
1 0 0 0.0 
 0 1 0 0.0 
 0 0 1 0.0 

%endblock kgrid_Monkhorst_Pack
WriteMDXmol .true.
AtomicCoordinatesFormat Ang
%block AtomicCoordinatesAndAtomicSpecies
25.913714  37.385725 28.981998  1 
25.802949  36.387734 30.080968  1 
24.782087  36.242096 30.941508  1 
23.556235  37.129546 30.954549  1 
24.803890  35.195313 32.018068  1 
25.195605  33.759240 31.639891  1 
24.968382  32.742648 32.776109  1 
23.500892  32.349977 33.122034  1 
23.518266  31.401832 34.324613  1 
22.555771  33.539330 33.378087  1 
21.139462  33.200111 33.880518  1 
20.364877  34.511954 34.075982  1 
18.905415  34.356743 34.544728  1 
18.825859  33.708470 35.930047  1 
18.081375  35.674497 34.485040  1 
18.514640  36.854342 35.381807  1 
19.844706  37.502433 34.994195  1 
20.389179  38.567834 35.956703  1 
20.517139  38.038728 37.388095  1 
21.771658  39.011758 35.457124  1 
26.409025  36.930288 28.120309  2 
26.511721  38.235802 29.320879  2 
24.941396  37.745124 28.645817  2 
26.663911  35.719770 30.178281  2 
23.755297  38.127081 30.554692  2 
23.184791  37.278980 31.973690  2 
22.752665  36.670337 30.364879  2 
23.792573  35.196443 32.387487  2 
25.406627  35.540963 32.867019  2 
26.267367  33.744156 31.398112  2 
24.669501  33.426222 30.738065  2 
25.494918  33.087886 33.674411  2 
25.481777  31.815269 32.476479  2 
23.106191  31.790727 32.264110  2 
23.817912  31.923796 35.237051  2 
24.215525  30.570588 34.159711  2 
22.530391  30.961278 34.487939  2 
22.371122  34.022385 32.412941  2 
23.018390  34.240139 34.072421  2 
21.206008  32.680047 34.843313  2 
20.625607  32.546562 33.168135  2 
20.400788  35.109150 33.162460  2 
20.931391  35.013286 34.858783  2 
18.418752  33.672298 33.832244  2 
18.225204  34.292905 36.633077  2 
19.811584  33.570341 36.383694  2 
18.358070  32.720841 35.851625  2 
17.051227  35.419504 34.771435  2 
18.015817  36.017284 33.444474  2 
18.523443  36.527234 36.424845  2 
17.736622  37.627250 35.313595  2 
19.770957  37.902787 33.977115  2 
20.631792  36.764031 34.960777  2 
19.721000  39.437169 35.950119  2 
19.567738  38.140209 37.923779  2 
21.275326  38.591796 37.954680  2 
20.801896  36.979916 37.406673  2 
22.503903  38.192386 35.541616  2 
22.142661  39.851127 36.046719  2 
21.736029  39.319376 34.409092  2 
36.520622  13.900138 13.104181  1 
36.746268  14.517223 11.768411  1 
37.834918  15.190686 11.361980  1 
39.031119  15.472930 12.245096  1 
37.928163  15.776228 9.982250  1 
37.551085  14.895088 8.782180  1 
37.896236  15.532197 7.421648  1 
39.397237  15.609603 7.011301  1 
39.501774  16.349041 5.674221  1 
40.323625  16.249370 8.062910  1 
41.784220  16.494540 7.638656  1 
42.532304  17.136364 8.816600  1 
44.027805  17.419311 8.577307  1 
44.234243  18.437275 7.451772  1 
44.805127  17.825765 9.861692  1 
44.408102  19.134260 10.578739  1 
43.033201  19.109280 11.248340  1 
42.533879  20.440564 11.828265  1 
42.533566  21.559630 10.782847  1 
41.104104  20.236583 12.349829  1 
35.973485  12.960828 12.987559  2 
35.925796  14.577555 13.722543  2 
37.452686  13.671685 13.620565  2 
35.915750  14.399596 11.066052  2 
38.771938  15.504012 13.306437  2 
39.476184  16.445856 12.012114  2 
39.799636  14.704035 12.095127  2 
38.964693  16.055469 9.899400  2 
37.383348  16.727452 9.939426  2 
36.464674  14.731480 8.799597  2 
38.015040  13.904752 8.852569  2 
37.431212  16.524058 7.363847  2 
37.388885  14.927915 6.652999  2 
39.740395  14.579834 6.848821  2 
39.258693  17.408759 5.786853  2 
38.818830  15.917045 4.931728  2 
40.512035  16.268847 5.262393  2 
40.418105  15.537863 8.889817  2 
39.895836  17.187668 8.414820  2 
41.808349  17.182412 6.785356  2 
42.260256  15.554879 7.340176  2 
42.407617  16.529903 9.716106  2 
42.013803  18.084937 8.944730  2 
44.477655  16.469215 8.248837  2 
44.870166  19.274331 7.754330  2 
43.291383  18.860390 7.093277  2 
44.723678  17.953927 6.599003  2 
45.861577  17.928180 9.575906  2 
44.779232  16.997673 10.581532  2 
44.490281  19.967285 9.875659  2 
45.155107  19.324353 11.361809  2 
43.015585  18.324621 12.012653  2 
42.268220  18.839640 10.535631  2 
43.173359  20.731358 12.670141  2 
43.518357  22.034446 10.724925  2 
41.805685  22.340956 11.030778  2 
42.282746  21.183269 9.783870  2 
40.405362  20.040684 11.520326  2 
40.755333  21.126757 12.874953  2 
41.048847  19.389789 13.038420  2 
40.405329  3.576145 42.994228  1 
39.857499  4.705399 42.193816  1 
40.542049  5.530046 41.384343  1 
42.040517  5.462923 41.183005  1 
39.863507  6.643878 40.639916  1 
38.571814  6.333634 39.869175  1 
38.097459  7.496200 38.975023  1 
38.907846  7.798443 37.679143  1 
38.307096  9.034365 37.003073  1 
40.423808  7.974025 37.889872  1 
41.242277  8.432617 36.667890  1 
42.715854  8.549929 37.084932  1 
43.690355  8.966523 35.966612  1 
43.375818  10.370261 35.440984  1 
45.190183  8.826898 36.354041  1 
45.736177  9.696566 37.507085  1 
45.198755  9.338058 38.893444  1 
45.589032  10.281875 40.040111  1 
45.208749  11.735418 39.743793  1 
44.867238  9.821012 41.314674  1 
39.687545  2.751578 43.005960  2 
40.575452  3.907126 44.022135  2 
41.338376  3.189365 42.585068  2 
38.780011  4.860483 42.302771  2 
42.561422  5.035258 42.043441  2 
42.466522  6.460659 41.034713  2 
42.274710  4.859296 40.296949  2 
40.615929  6.973155 39.943732  2 
39.710370  7.502675 41.305123  2 
37.772854  6.134686 40.596803  2 
38.675359  5.424579 39.265957  2 
38.001820  8.401311 39.587399  2 
37.071871  7.250709 38.656765  2 
38.762982  6.946571 37.002452  2 
38.498009  9.938305 37.587214  2 
37.221764  8.927121 36.881075  2 
38.727678  9.174773 36.003044  2 
40.838307  6.985515 38.113437  2 
40.608183  8.660066 38.716071  2 
40.887667  9.415501 36.336134  2 
41.126536  7.724834 35.840658  2 
43.052006  7.617462 37.543147  2 
42.692514  9.335609 37.838068  2 
43.533673  8.260825 35.135721  2 
44.250133  11.027595 35.450282  2 
42.591566  10.866843 36.019678  2 
43.030707  10.309452 34.402914  2 
45.775592  9.081818 35.459300  2 
45.417963  7.772821 36.558038  2 
45.560393  10.750323 37.275348  2 
46.827388  9.569984 37.531320  2 
45.473323  8.305025 39.133507  2 
44.119301  9.362259 38.900536  2 
46.670377  10.217634 40.209868  2 
45.994269  12.229509 39.162888  2 
45.070747  12.310815 40.666629  2 
44.275185  11.803502 39.172534  2 
43.778056  9.963744 41.225216  2 
45.207661  10.393853 42.178254  2 
45.048761  8.761925 41.513807  2 
3.166778  5.638439 0.434835  1 
3.327993  6.584797 0.154792  1 
4.104619  7.091568 0.528991  1 
4.720036  6.651990 1.183234  1 
5.496667  7.158770 1.557433  1 
6.112084  6.719191 2.211676  1 
6.888710  7.225963 2.585875  1 
7.504127  6.786384 3.240117  1 
8.280759  7.293164 3.614317  1 
8.896175  6.853586 4.268560  1 
9.672801  7.360357 4.642759  1 
10.288218  6.920779 5.297001  1 
11.064850  7.427559 5.671201  1 
11.680267  6.987980 6.325443  1 
12.456893  7.494752 6.699643  1 
13.072309  7.055173 7.353885  1 
13.848941  7.561953 7.728085  1 
14.464358  7.122375 8.382327  1 
15.240984  7.629146 8.756526  1 
15.856401  7.189568 9.410769  1 
16.633033  7.696348 9.784968  1 
17.248449  7.256769 10.439211  1 
0.053226  41.557587 1.837442  1 
0.680054  42.326711 1.962082  1 
1.667213  42.183851 1.890668  1 
2.027551  41.271861 1.694611  1 
3.014717  41.128994 1.623195  1 
3.375047  40.217010 1.427141  1 
4.362214  40.074144 1.355725  1 
4.722544  39.162160 1.159670  1 
5.709710  39.019293 1.088254  1 
6.070040  38.107309 0.892199  1 
7.057206  37.964443 0.820783  1 
7.417537  37.052458 0.624728  1 
8.404703  36.909592 0.553312  1 
8.765033  35.997608 0.357257  1 
9.752199  35.854741 0.285841  1 
10.112530  34.942757 0.089786  1 
11.099696  34.799891 0.018371  1 
48.267854  0.213642 2.211127  1 
48.443663  0.709930 1.360956  1 
47.689296  1.149590 0.873494  1 
46.759110  1.092965 1.236201  1 
46.004734  1.532628 0.748738  1 
45.074558  1.476000 1.111445  1 
44.320181  1.915663 0.623982  1 
43.390005  1.859036 0.986690  1 
42.635629  2.298698 0.499226  1 
41.705453  2.242071 0.861934  1 
40.951076  2.681733 0.374471  1 
40.020900  2.625106 0.737179  1 
39.266523  3.064769 0.249715  1 
38.336348  3.008141 0.612423  1 
37.581971  3.447804 0.124960  1 
36.651795  3.391177 0.487667  1 
35.897418  3.830839 0.000204  1 
48.777226  34.285314 14.775938  1 
49.033202  32.819454 14.559027  1 
49.438262  32.382672 13.295115  1 
49.680820  31.036266 13.106425  1 
49.556296  30.106797 14.074266  3 
49.172985  30.515900 15.295374  1 
49.064912  29.565189 16.301780  1 
48.684052  29.905102 17.601697  1 
48.387034  31.225152 17.906833  1 
48.482293  32.199276 16.913703  1 
48.886732  31.867212 15.598823  1 
48.988562  34.868701 13.873240  2 
49.424629  34.670929 15.570151  2 
47.728641  34.454267 15.041045  2 
49.569113  33.074139 12.469554  2 
49.998221  30.655571 12.139856  2 
49.292251  28.527937 16.067067  2 
48.622603  29.136351 18.367344  2 
48.086429  31.500157 18.914405  2 
48.242459  33.225718 17.178197  2 
29.421308  46.733397 20.295212  1 
30.776976  46.492835 19.690551  1 
31.448309  47.559609 19.087531  1 
32.697107  47.332928 18.543136  1 
33.319601  46.137805 18.560887  3 
32.686130  45.105849 19.143279  1 
33.332906  43.877677 19.183993  1 
32.752091  42.755969 19.779647  1 
31.485808  42.853266 20.337251  1 
30.811713  44.073462 20.305405  1 
31.400698  45.220283 19.721755  1 
29.126532  47.785450 20.216754  2 
29.428824  46.477302 21.359620  2 
28.662035  46.137697 19.778490  2 
31.014092  48.552751 19.043641  2 
33.252920  48.135094 18.066135  2 
34.324095  43.794493 18.744346  2 
33.293156  41.813845 19.804566  2 
31.023107  41.985740 20.800390  2 
29.820193  44.122685 20.747589  2 
27.617090  37.655721 43.344135  1 
26.181317  38.100236 43.391918  1 
25.897749  39.466060 43.472169  1 
24.576599  39.866910 43.505785  1 
23.531510  39.017304 43.460030  3 
23.791946  37.701758 43.376898  1 
22.718434  36.823662 43.306862  1 
22.898800  35.442388 43.207218  1 
24.182463  34.917177 43.192292  1 
25.278375  35.776095 43.266687  1 
25.105429  37.178334 43.347704  1 
28.302938  38.509807 43.340100  2 
27.807535  37.082647 42.430942  2 
27.856202  37.043591 44.219623  2 
26.686928  40.209718 43.503316  2 
24.313052  40.918919 43.567006  2 
21.709667  37.229623 43.322686  2 
22.035172  34.786058 43.141283  2 
24.334185  33.843534 43.118388  2 
26.273401  35.339236 43.254909  2 
9.841584  31.427704 6.740884  1 
11.168434  32.023838 7.122219  1 
11.265352  32.758032 8.307079  1 
12.489540  33.294070 8.655324  1 
13.610398  33.148686 7.921379  3 
13.530634  32.439671 6.782812  1 
14.687747  32.268073 6.034461  1 
14.696835  31.536396 4.844947  1 
13.519283  30.971937 4.377380  1 
12.341761  31.133329 5.106551  1 
12.327200  31.856138 6.323138  1 
9.078969  31.622478 7.502689  2 
9.928089  30.341075 6.639104  2 
9.486281  31.858620 5.799381  2 
10.407789  32.909225 8.954015  2 
12.607998  33.870432 9.568397  2 
15.613004  32.712250 6.394005  2 
15.624008  31.411813 4.291955  2 
13.514402  30.403380 3.451146  2 
11.432508  30.682690 4.717648  2 
40.201998  20.135278 22.754064  1 
41.541450  20.818700 22.743015  1 
42.687357  20.058524 22.495312  1 
43.912789  20.695102 22.477128  1 
44.076454  22.017383 22.679414  3 
42.980980  22.759585 22.912806  1 
43.142059  24.126166 23.099603  1 
42.056789  24.972725 23.336049  1 
40.776213  24.444207 23.404259  1 
40.586638  23.074377 23.225588  1 
41.678152  22.211943 22.965678  1 
40.291702  19.069973 22.515437  2 
39.541403  20.581168 22.003463  2 
39.741319  20.214900 23.743909  2 
42.632851  18.990340 22.314169  2 
44.827684  20.141120 22.287396  2 
44.144380  24.545350 23.051631  2 
42.219111  26.039526 23.464724  2 
39.924904  25.093489 23.591066  2 
39.573703  22.685242 23.285569  2 
4.617511  5.113119 10.466559  1 
5.496151  5.539936 9.334285  1 
5.969731  6.815148 9.337767  3 
6.766447  7.237925 8.332257  1 
7.160518  6.460830 7.255741  1 
6.686112  5.142009 7.228178  1 
6.849974  4.043291 6.324772  1 
7.551651  3.863012 5.114708  1 
7.500479  2.622891 4.467316  1 
6.765080  1.570262 5.006872  1 
6.061420  1.723134 6.204793  1 
6.123817  2.970057 6.837886  1 
5.541765  3.399817 8.006154  3 
4.954724  2.826418 8.593574  2 
5.864431  4.711449 8.268453  1 
4.470013  5.930930 11.178602  2 
5.071841  4.271559 10.998384  2 
3.637980  4.806282 10.087239  2 
7.097617  8.269510 8.416986  2 
7.802029  6.858114 6.479483  2 
8.127861  4.677359 4.685867  2 
8.040675  2.481888 3.534338  2 
6.737411  0.614043 4.489132  2 
5.489370  0.900685 6.621570  2 
20.932328  3.124660 38.317360  1 
19.514356  2.870801 38.718780  1 
19.071881  1.584476 38.724969  3 
17.797307  1.314900 39.081814  1 
16.863209  2.266231 39.456629  1 
17.293924  3.600243 39.458804  1 
16.666425  4.848935 39.770551  1 
15.373767  5.219299 40.195963  1 
15.082476  6.570562 40.417037  1 
16.055394  7.547771 40.220952  1 
17.343874  7.206800 39.800141  1 
17.616890  5.851010 39.583781  1 
18.775395  5.235616 39.174535  3 
19.634201  5.722172 38.964339  2 
18.610162  3.872240 39.089689  1 
21.443887  2.189137 38.071028  2 
21.474101  3.607819 39.136210  2 
20.963349  3.775600 37.438255  2 
17.531104  0.261529 39.058061  2 
15.854419  1.986633 39.732518  2 
14.608281  4.465073 40.351707  2 
14.086538  6.858155 40.744969  2 
15.809999  8.592582 40.397951  2 
18.098832  7.971200 39.648160  2 
21.767643  3.461713 33.170394  1 
22.884899  2.926095 32.333091  1 
23.479710  1.767420 32.725682  3 
24.492375  1.251919 31.995397  1 
25.000243  1.817860 30.837883  1 
24.404489  3.012933 30.411283  1 
24.621414  3.893949 29.303615  1 
25.517159  3.899930 28.214251  1 
25.460392  4.942597 27.281910  1 
24.529981  5.969659 27.421328  1 
23.631185  5.986640 28.491562  1 
23.702756  4.936203 29.414045  1 
22.957790  4.698008 30.543920  3 
22.213200  5.295733 30.870691  2 
23.360014  3.540023 31.168884  1 
21.574123  2.811363 34.028981  2 
20.851253  3.528820 32.576087  2 
22.022280  4.458234 33.544051  2 
24.907184  0.325213 32.382912  2 
25.815252  1.355454 30.295768  2 
26.246206  3.103857 28.096613  2 
26.150090  4.949073 26.441425  2 
24.501241  6.771209 26.686570  2 
22.908153  6.788840 28.596759  2 
10.055561  4.941142 8.658388  1 
9.578879  3.573925 9.032178  1 
10.082571  2.511657 8.347827  3 
9.676523  1.260884 8.656434  1 
8.757947  0.949215 9.644936  1 
8.223455  2.026331 10.365525  1 
7.276791  2.138015 11.433949  1 
6.517029  1.208484 12.174112  1 
5.660658  1.666572 13.182288  1 
5.553760  3.027485 13.458781  1 
6.296068  3.968741 12.740074  1 
7.146792  3.492459 11.735614  1 
7.980907  4.176263 10.884149  3 
8.089786  5.179549 10.878675  2 
8.646244  3.314619 10.042610  1 
10.782575  4.893595 7.841831  2 
10.534243  5.420397 9.517837  2 
9.211961  5.557329 8.332558  2 
10.130669  0.474603 8.059329  2 
8.472365  -0.075614 9.845230  2 
6.593237  0.145428 11.966299  2 
5.074054  0.951602 13.754001  2 
4.882874  3.364141 14.246023  2 
6.209584  5.028103 12.958338  2 
25.454007  2.570974 41.702989  1 
24.938360  2.627919 40.300459  1 
24.471468  1.478029 39.743483  3 
23.997380  1.489213 38.478706  1 
23.941198  2.608744 37.665348  1 
24.416320  3.807313 38.215623  1 
24.533274  5.149014 37.729479  1 
24.215643  5.783081 36.510391  1 
24.465298  7.152385 36.361007  1 
25.022536  7.890142 37.402716  1 
25.345870  7.285549 38.620684  1 
25.089567  5.915650 38.751843  1 
25.302398  5.073176 39.816393  3 
25.698973  5.360648 40.698751  2 
24.904262  3.789590 39.521115  1 
25.379862  1.556824 42.107437  2 
24.873124  3.240621 42.344568  2 
26.504538  2.876213 41.729943  2 
23.645553  0.527091 38.115997  2 
23.549190  2.553522 36.657763  2 
23.780902  5.216785 35.692228  2 
24.221194  7.643061 35.421968  2 
25.209155  8.953203 37.267621  2 
25.780222  7.863794 39.429595  2 
23.540170  14.697875 37.267117  1 
22.120073  15.175454 37.304179  1 
21.067300  14.275135 37.350196  1 
19.764979  14.752505 37.529029  1 
18.695639  13.847011 37.642784  1 
17.395996  14.295316 37.927406  1 
16.317982  13.426863 38.120905  1 
15.062704  13.821318 38.440600  3 
14.862926  15.147391 38.561909  1 
15.850396  16.098391 38.365029  1 
17.146829  15.670664 38.047502  1 
18.209625  16.578409 37.876830  1 
19.537923  16.141169 37.633834  1 
20.666665  16.984821 37.512587  1 
20.599689  18.479752 37.625783  1 
21.932129  16.509371 37.365983  3 
23.602432  13.613197 37.135397  2 
24.031961  14.954122 38.211605  2 
24.080288  15.175863 36.444970  2 
21.263877  13.208874 37.292343  2 
18.880449  12.780338 37.550592  2 
16.441542  12.350387 38.039987  2 
13.853428  15.441146 38.836775  2 
15.614218  17.151587 38.479459  2 
17.993877  17.637863 37.967906  2 
19.599700  18.889139 37.472623  2 
21.244616  18.935611 36.866045  2 
20.957822  18.788542 38.613401  2 
17.812181  23.087477 31.390545  1 
17.444220  24.457319 30.906534  1 
18.419331  25.353922 30.498751  1 
18.035003  26.567176 29.918914  1 
19.012962  27.457170 29.441575  1 
18.651775  28.631300 28.761852  1 
19.589310  29.507191 28.207227  1 
19.276462  30.623382 27.507393  3 
17.965185  30.892163 27.361080  1 
16.952624  30.110149 27.891582  1 
17.295311  28.951468 28.601892  1 
16.318623  28.086128 29.130978  1 
16.664385  26.872610 29.780921  1 
15.743813  25.923454 30.283074  1 
14.254607  26.084854 30.191770  1 
16.127367  24.734766 30.820523  3 
18.894273  22.973416 31.508116  2 
17.469221  22.343541 30.663556  2 
17.338099  22.885444 32.355198  2 
19.468825  25.091172 30.590535  2 
20.065589  27.216506 29.561999  2 
20.655824  29.319764 28.296865  2 
17.736018  31.781987 26.780885  2 
15.916200  30.390880 27.733122  2 
15.275627  28.355667 29.001387  2 
13.932204  27.113620 30.022268  2 
13.791179  25.761975 31.130877  2 
13.867359  25.457795 29.381933  2 
7.781183  47.441565 34.947694  1 
8.406377  46.079594 34.964922  1 
9.784128  45.928916 34.976048  1 
10.332388  44.652469 35.137280  1 
11.726943  44.493053 35.215719  1 
12.297187  43.238135 35.482291  1 
13.672688  43.046785 35.640877  1 
14.252667  41.860965 35.942503  3 
13.426421  40.806846 36.081239  1 
12.052686  40.875697 35.918848  1 
11.468825  42.114286 35.619650  1 
10.075689  42.267567 35.484222  1 
9.478806  43.535659 35.259996  1 
8.088451  43.780734 35.174223  1 
7.048073  42.707766 35.310137  1 
7.564829  45.028911 35.044527  3 
8.525456  48.230191 34.799770  2 
7.281433  47.621502 35.905530  2 
7.042666  47.510325 34.143958  2 
10.424879  46.802571 34.904866  2 
12.375191  45.358523 35.109975  2 
14.370291  43.874302 35.545058  2 
13.910382  39.869224 36.341191  2 
11.449977  39.981959 36.045611  2 
9.453851  41.384501 35.588135  2 
7.430590  41.699206 35.144243  2 
6.255485  42.867860 34.570465  2 
6.602624  42.754193 36.309346  2 
41.847234  7.196692 22.925677  1 
40.535394  6.834742 22.297825  1 
39.685726  7.814672 21.809128  1 
38.539608  7.437253 21.102111  1 
37.703754  8.420756 20.544958  1 
36.606940  8.067493 19.742920  1 
35.793178  9.011372 19.109950  1 
34.756062  8.706619 18.294451  3 
34.504521  7.397126 18.107221  1 
35.227461  6.378542 18.705638  1 
36.305732  6.712995 19.536292  1 
37.111676  5.730240 20.142355  1 
38.250772  6.068361 20.918716  1 
39.142858  5.141944 21.507308  1 
38.992461  3.653885 21.384103  1 
40.268958  5.519049 22.169604  3 
41.947983  8.277417 23.065813  2 
42.662972  6.860849 22.276557  2 
41.947912  6.712409 23.901106  2 
39.937055  8.862971 21.938761  2 
37.930134  9.471902 20.700805  2 
35.969810  10.076763 19.229783  2 
33.680049  7.174644 17.435152  2 
34.965186  5.344022 18.507960  2 
36.857530  4.688839 19.974484  2 
37.987072  3.333970 21.105028  2 
39.215983  3.180440 22.346822  2 
39.700602  3.274702 20.639955  2 
18.189765  6.212874 35.434163  1 
18.285247  7.700297 35.277360  1 
19.474996  8.367125 35.524062  1 
19.569435  9.731198 35.230313  1 
20.789286  10.405329 35.414323  1 
20.939136  11.746893 35.028562  1 
22.152252  12.434437 35.125503  1 
22.344150  13.712652 34.721936  3 
21.273508  14.346657 34.207290  1 
20.018569  13.772519 34.090016  1 
19.842092  12.444168 34.500935  1 
18.606141  11.782280 34.370575  1 
18.448230  10.413881 34.712848  1 
17.259835  9.663603 34.553761  1 
15.989362  10.232842 33.993418  1 
17.186209  8.331567 34.816830  3 
19.092358  5.791758 35.887751  2 
18.058996  5.753636 34.448477  2 
17.334355  5.951445 36.063491  2 
20.334464  7.820055 35.899471  2 
21.643412  9.872330 35.822766  2 
23.040283  11.954161 35.527191  2 
21.453801  15.364808 33.872935  2 
19.201236  14.346712 33.665323  2 
17.769185  12.341765 33.965895  2 
15.939913  11.322397 34.031605  2 
15.134083  9.860047 34.568274  2 
15.872293  9.912498 32.952902  2 
24.242782  15.531730 32.023825  1 
22.753559  15.570092 31.859169  1 
22.055737  16.769110 31.873201  1 
20.649953  16.784795 31.716145  1 
19.855016  17.970299 31.717072  1 
20.431715  19.219356 31.877286  4 
18.455054  17.968429 31.558644  1 
17.752960  19.126548 31.566846  3 
16.416402  19.085710 31.412244  1 
15.703427  17.919318 31.243356  1 
16.402665  16.712766 31.231453  1 
15.630275  15.432975 31.047170  1 
17.813644  16.728281 31.392206  1 
18.593530  15.551012 31.390817  1 
19.998617  15.545407 31.547739  1 
20.790564  14.370903 31.545458  1 
20.241467  12.981205 31.375579  1 
22.138777  14.385385 31.698544  3 
24.665780  16.533633 32.144235  2 
24.701368  15.071207 31.143244  2 
24.502938  14.942457 32.908620  2 
22.626351  17.680326 32.007593  2 
21.386917  19.157064 31.982589  2 
15.920191  20.051538 31.428844  2 
14.626328  17.957053 31.124065  2 
14.556836  15.620149 30.939764  2 
15.763199  14.780261 31.916198  2 
15.964050  14.914447 30.142377  2 
18.075252  14.607432 31.261392  2 
19.161565  12.928775 31.239553  2 
20.488309  12.382696 32.258715  2 
20.701794  12.513815 30.498737  2 
20.223112  34.330794 47.374994  1 
21.285391  33.614539 46.597236  1 
22.594729  34.072541 46.571440  1 
23.583394  33.382596 45.831402  1 
24.951264  33.782382 45.751104  1 
25.408683  34.908315 46.415510  4 
25.923974  33.083098 45.009595  1 
27.208692  33.510044 44.971376  3 
28.110589  32.815968 44.252491  1 
27.804705  31.677867 43.539408  1 
26.488608  31.217190 43.561970  1 
26.146118  29.973315 42.784868  1 
25.517604  31.931152 44.313203  1 
24.165723  31.529794 44.387465  1 
23.184664  32.225616 45.130621  1 
21.826869  31.830501 45.213824  1 
21.254054  30.622554 44.525076  1 
20.898938  32.512151 45.931892  3 
20.618411  35.211808 47.889571  2 
19.797395  33.658863 48.126711  2 
19.426457  34.658302 46.699815  2 
22.824006  34.969048 47.135076  2 
24.700821  35.344118 46.901707  2 
29.119940  33.216332 44.268130  2 
28.580103  31.165897 42.980444  2 
27.021675  29.563544 42.270739  2 
25.393564  30.197070 42.021644  2 
25.768691  29.196469 43.457912  2 
23.877433  30.638655 43.841143  2 
21.971656  30.042366 43.945535  2 
20.460184  30.937584 43.839803  2 
20.821455  29.949560 45.272835  2 
22.953210  10.702779 25.898222  1 
23.576172  11.032187 27.221013  1 
24.508651  12.051748 27.346618  1 
25.085546  12.347687 28.603897  1 
26.049141  13.377688 28.822821  1 
26.492595  14.176732 27.782018  4 
26.613673  13.660000 30.082424  1 
27.524106  14.651803 30.229672  3 
28.041645  14.892924 31.448676  1 
27.698333  14.181837 32.577313  1 
26.763048  13.154911 32.452786  1 
26.382291  12.372742 33.682277  1 
26.201486  12.880346 31.177559  1 
25.248876  11.859060 30.968534  1 
24.677125  11.571156 29.707923  1 
23.719348  10.550959 29.487671  1 
23.187064  9.644470 30.563114  1 
23.182225  10.288658 28.269468  3 
23.322277  11.353954 25.100102  2 
21.866949  10.821040 25.960312  2 
23.182643  9.667368 25.627902  2 
24.772016  12.603950 26.452365  2 
26.074470  13.936248 26.948521  2 
28.764588  15.702161 31.491277  2 
28.153610  14.427999 33.530163  2 
26.917092  12.727679 34.569323  2 
26.631265  11.314487 33.551806  2 
25.310906  12.477240 33.882635  2 
24.947939  11.271596 31.828784  2 
23.587702  9.830931 31.559187  2 
23.417271  8.604649 30.308455  2 
22.099332  9.754857 30.625233  2 
40.755049  23.003801 30.767748  1 
41.276021  23.926209 29.707503  1 
40.417808  24.681908 28.921891  1 
40.928757  25.547045 27.926094  1 
40.119641  26.359396 27.075940  1 
38.738393  26.349256 27.178135  4 
40.644902  27.216685 26.088948  1 
39.826799  27.965514 25.311642  3 
40.364773  28.773543 24.379102  1 
41.719772  28.889549 24.160360  1 
42.584092  28.128920 24.947277  1 
44.067138  28.250212 24.714308  1 
42.041972  27.268598 25.938686  1 
42.848936  26.467252 26.775848  1 
42.328968  25.605956 27.769190  1 
43.129225  24.799911 28.615670  1 
44.631718  24.756127 28.568493  1 
42.611615  23.978148 29.563356  3 
39.662476  23.022765 30.823981  2 
41.152224  23.299130 31.743882  2 
41.068311  21.977410 30.552866  2 
39.354013  24.582222 29.101835  2 
38.439008  25.745256 27.865836  2 
39.649161  29.343582 23.794055  2 
42.087399  29.560190 23.391668  2 
44.293928  28.959593 23.911696  2 
44.486648  27.281650 24.423081  2 
44.565996  28.610533 25.619978  2 
43.923127  26.524793 26.639800  2 
45.086012  25.411196 27.825567  2 
44.958493  23.734926 28.346143  2 
45.034020  25.045319 29.545083  2 
34.409915  13.026069 25.074723  1 
33.596897  14.146108 24.499502  1 
33.515232  15.378356 25.131715  1 
32.742593  16.423360 24.573024  1 
32.604655  17.719450 25.154806  1 
33.240601  18.043167 26.341892  4 
31.831260  18.749885 24.584665  1 
31.738427  19.961547 25.182578  3 
30.990400  20.922038 24.608235  1 
30.299914  20.748127 23.429120  1 
30.378640  19.509432 22.793289  1 
29.626557  19.311350 21.503503  1 
31.161556  18.479044 23.378340  1 
31.292842  17.198767 22.797100  1 
32.068244  16.160605 23.362695  1 
32.208645  14.873958 22.786957  1 
31.553665  14.446334 21.502525  1 
32.956995  13.889371 23.345423  3 
34.900746  13.316169 26.008621  2 
35.183726  12.725429 24.361536  2 
33.764037  12.166905 25.280795  2 
34.061528  15.503867 26.058960  2 
33.750680  17.301282 26.683659  2 
30.962529  21.866831 25.142946  2 
29.715111  21.564532 23.020117  2 
29.081694  20.214593 21.210045  2 
28.891858  18.506709 21.611597  2 
30.320756  19.069895 20.691890  2 
30.766139  17.014767 21.867351  2 
30.951185  15.214099 21.017763  2 
30.897698  13.591253 21.696477  2 
32.323803  14.138876 20.787289  2 
9.995705  7.400054 43.969406  1 
9.699576  7.461483 42.461010  1 
9.632792  8.930321 42.030249  1 
10.776125  6.685840 41.674887  1 
10.949132  5.258909 41.974975  3 
10.158786  4.161655 41.850704  1 
10.716823  3.061463 41.911515  4 
8.654052  4.270307 41.535237  1 
7.837453  3.255948 42.382681  1 
7.974485  3.567895 43.879160  1 
6.343653  3.241818 42.023039  1 
8.538474  3.989777 40.104935  3 
8.667271  4.862979 39.061789  1 
8.902210  4.404813 37.946594  4 
8.603192  6.387988 39.316216  1 
7.756887  7.068009 38.202922  1 
6.305068  6.577635 38.220114  1 
7.762288  8.597582 38.321237  1 
9.987805  6.853872 39.241811  3 
10.977618  6.921309 40.162734  1 
12.121939  7.096749 39.725935  4 
9.229224  7.935969 44.539512  2 
10.964009  7.857580 44.203368  2 
10.013217  6.366688 44.330125  2 
8.704394  7.045797 42.320510  2 
10.608841  9.418393 42.119019  2 
8.919979  9.484354 42.650921  2 
9.298042  9.022528 40.993627  2 
11.714480  7.105556 42.077019  2 
11.920994  4.973233 42.057257  2 
8.279957  5.261441 41.744047  2 
8.222788  2.242023 42.213894  2 
7.542592  4.544829 44.122871  2 
9.021816  3.570752 44.194666  2 
7.456885  2.811556 44.479410  2 
5.913239  4.249019 42.031608  2 
5.778411  2.635176 42.741607  2 
6.175946  2.804655 41.033707  2 
8.758846  3.039264 39.819092  2 
8.179141  6.626712 40.286566  2 
8.180946  6.817664 37.220724  2 
5.811927  6.832476 39.163859  2 
6.243308  5.494029 38.082882  2 
5.735235  7.039180 37.405684  2 
7.407799  8.922549 39.304751  2 
7.107715  9.045970 37.564780  2 
8.764935  9.007428 38.163479  2 
10.383166  6.866816 38.305573  2 
26.626807  27.541306 49.325390  1 
27.472412  27.646097 48.044494  1 
26.992334  28.853935 47.233226  1 
28.968537  27.758272 48.401702  1 
29.572941  26.664739 49.173063  3 
29.794137  25.346274 48.934784  1 
30.600688  24.772688 49.673703  4 
29.162404  24.616092 47.733410  1 
28.662811  23.203932 48.145881  1 
27.553474  23.309901 49.201192  1 
28.128920  22.387851 46.958469  1 
30.221922  24.537834 46.728863  3 
30.564117  25.470403 45.790545  1 
31.682105  25.403546 45.286157  4 
29.588118  26.622531 45.452144  1 
29.561767  26.849766 43.914042  1 
29.031886  25.618284 43.171602  1 
28.713261  28.065850 43.520599  1 
30.134082  27.804240 46.119393  3 
29.991299  28.289640 47.374932  1 
30.804997  29.153756 47.724565  4 
25.562698  27.446748 49.083623  2 
26.746494  28.430926 49.954620  2 
26.909546  26.666000 49.918829  2 
27.253506  26.760719 47.451952  2 
27.200113  29.794293 47.754109  2 
25.912767  28.797235 47.055438  2 
27.479125  28.890749 46.255053  2 
28.976361  28.575113 49.144057  2 
30.172648  26.981116 49.930133  2 
28.323141  25.167327 47.336331  2 
29.492078  22.634835 48.585724  2 
26.667012  23.811276 48.797293  2 
27.887976  23.866926 50.081129  2 
27.250720  22.314140 49.543329  2 
27.388963  22.949588 46.378211  2 
27.644668  21.467461 47.308092  2 
28.937979  22.087672 46.285171  2 
31.012452  23.942456 46.961956  2 
28.580148  26.425804 45.803830  2 
30.583703  27.038919 43.557565  2 