NumberOfAtoms 205
SpinPolarized yes
#FixSpin .true.
#TotalSpin 
NumberOfSpecies 4

 
MD.TypeOfRun  nose
MD.FinalTimeStep 10
MD.LengthTimeStep 1.0  fs
MD.InitialTemperature 300 K 
MD.TargetTemperature  300  K


%block ChemicalSpeciesLabel
1  6  C
2  7  N
3  1  H
4  8  O
%endblock ChemicalSpeciesLabel

PAO.BasisSize dzp 
 PAO.EnergyShift 0.02 Ry 
 
MeshCutoff          100 Ry
MaxSCFIterations    100  
DM.NumberPulay       3  
DM.Tolerance         1e-3
WriteDenchar	.true.

%block ProjectedDensityOfStates
-10.0 10.0 0.200 500 eV
%endblock ProjectedDensityOfStates
NetCharge 0.00

%block BandLines
1  1.000  1.000 1.000  L
20 0.00   0.00   0.00  \Gamma
25 2.00   0.000  0.00  X
30 2.00   2.00   2.00  \Gamma
%endblock BandLines


LongOutput .true.
WriteCoorXmol .true.
LatticeConstant 1 Ang
%block LatticeVectors
  38.018604 0.0 0.0
  0.0 32.442533 0.0
  0.0 0.0 23.863236
%endblock LatticeVectors


 

#UseSaveData .true.  
%block kgrid_Monkhorst_Pack
1 0 0 0.0 
 0 1 0 0.0 
 0 0 1 0.0 

%endblock kgrid_Monkhorst_Pack
WriteMDXmol .true.
AtomicCoordinatesFormat Ang
%block AtomicCoordinatesAndAtomicSpecies
24.694839  20.041090 9.719635  1 
23.599875  20.009973 10.624768  1 
22.912580  21.338417 10.924645  1 
23.303911  22.577901 10.056539  1 
24.720387  22.493311 9.498242  1 
25.264988  21.243503 9.240114  1 
25.235172  18.815972 9.285995  1 
24.776965  17.599414 9.795804  1 
23.887017  17.558170 10.893613  1 
23.225819  18.772754 11.265294  1 
25.216226  16.382762 9.201209  1 
24.852666  15.154670 9.753845  1 
24.278899  15.223833 11.046562  1 
23.741361  16.380687 11.538788  2 
26.066731  16.413294 8.069433  1 
26.322952  15.255323 7.297616  1 
25.639154  14.058421 7.644258  1 
25.054337  13.990689 8.924667  1 
26.292843  18.810326 8.337765  1 
26.688126  17.603156 7.719710  1 
26.441184  21.226990 8.446998  1 
26.947958  19.987123 8.012188  1 
25.281710  23.655579 9.052112  2 
26.433233  23.645926 8.328110  1 
27.038114  22.435310 8.021309  1 
25.294209  12.829523 6.957896  1 
24.760677  11.980471 7.907540  1 
24.726522  12.665708 9.095976  2 
25.296495  12.380256 5.610296  1 
24.759723  11.109196 5.238936  1 
24.278278  10.255269 6.262781  1 
24.315131  10.691323 7.609658  1 
27.721631  17.599480 6.746115  1 
27.984608  16.437365 6.003211  1 
27.247470  15.289348 6.241054  1 
28.121199  19.910912 7.224995  1 
28.478180  18.736691 6.562641  1 
28.253933  22.362146 7.133336  1 
29.038728  21.078397 7.204068  1 
22.093089  18.771241 12.339646  1 
21.236973  17.491682 12.399117  1 
22.602908  19.179432 13.750380  1 
21.558743  19.196093 14.888900  1 
20.380355  20.135464 14.664910  1 
24.316571  14.050813 12.008120  1 
25.026042  14.371385 13.340999  1 
25.068446  13.182568 14.331652  1 
25.802190  11.968229 13.749885  1 
25.955678  10.756966 14.685369  1 
26.748916  9.604684 14.003856  1 
28.196715  10.027211 13.670614  1 
29.021094  8.939051 12.998394  1 
26.721360  8.335295 14.865049  1 
23.621349  8.895311 6.060408  1 
24.592666  7.710540 6.150083  1 
23.880233  6.363707 6.086563  1 
24.614581  10.847012 3.736043  1 
25.409209  9.669582 3.149147  1 
25.311898  9.506666 1.608727  1 
26.101784  8.262156 1.155199  1 
23.864496  9.448106 1.080442  1 
23.016583  8.340406 1.691338  1 
26.971465  25.032364 7.969094  1 
27.671474  25.227885 6.607566  1 
28.308309  26.599831 6.350184  1 
29.079223  26.548042 5.020197  1 
27.276146  27.711657 6.349181  1 
22.964439  23.874570 10.844567  1 
23.242595  25.197242 10.132249  1 
23.083818  21.570350 11.980210  3 
21.829484  21.202609 10.790109  3 
22.653116  22.563440 9.168416  3 
24.326850  12.271400 9.934218  3 
25.615434  13.074886 4.835875  3 
23.924310  10.062018 8.404870  3 
28.754167  16.438947 5.245473  3 
27.462946  14.397377 5.656121  3 
29.354571  18.728460 5.924889  3 
27.916828  22.517066 6.098353  3 
28.977476  23.112906 7.444524  3 
29.631761  21.068329 8.128133  3 
29.742219  21.038859 6.364636  3 
21.375363  19.536973 12.023575  3 
21.773314  16.643843 12.834136  3 
20.873459  17.211902 11.405202  3 
20.350085  17.639347 13.024977  3 
23.054787  20.176866 13.701599  3 
23.410119  18.500446 14.052232  3 
22.060397  19.493834 15.819251  3 
21.179022  18.184320 15.069716  3 
20.710717  21.174308 14.570976  3 
19.687750  20.081463 15.513539  3 
19.815843  19.867208 13.768462  3 
24.878820  13.234257 11.558350  3 
23.295707  13.699126 12.186912  3 
24.532666  15.218706 13.831222  3 
26.056094  14.695200 13.133105  3 
24.047528  12.906303 14.616333  3 
25.577753  13.516127 15.245705  3 
26.783869  12.314897 13.416615  3 
25.260178  11.614138 12.867996  3 
24.953762  10.390146 14.944937  3 
26.441730  11.045190 15.625584  3 
26.239993  9.363015 13.061165  3 
28.708779  10.359685 14.581442  3 
28.187338  10.878939 12.983153  3 
29.187507  8.089149 13.665136  3 
30.003612  9.332957 12.719752  3 
28.527015  8.582932 12.088916  3 
27.290004  8.465070 15.791596  3 
27.149058  7.483211 14.324174  3 
25.695790  8.054583 15.123829  3 
23.053712  8.876955 5.125426  3 
22.861627  8.768251 6.848269  3 
25.184274  7.757834 7.072187  3 
25.311153  7.748983 5.329705  3 
23.194549  6.224384 6.929124  3 
24.615644  5.551960 6.117455  3 
23.310988  6.262579 5.157102  3 
24.916483  11.749534 3.184752  3 
23.544814  10.734184 3.526551  3 
25.046602  8.745871 3.595938  3 
26.466921  9.764958 3.425898  3 
25.788348  10.374706 1.133446  3 
25.945346  7.410082 1.826068  3 
27.176196  8.473320 1.138888  3 
25.816626  7.944750 0.144982  3 
23.887861  9.315395 -0.009025  3 
23.369413  10.412555 1.245737  3 
23.592525  7.428732 1.870863  3 
22.188848  8.086993 1.021866  3 
22.584883  8.662503 2.643518  3 
27.647847  25.338689 8.776465  3 
26.120109  25.725180 8.000565  3 
26.982309  24.951806 5.800516  3 
28.528619  24.576999 6.505895  3 
29.042741  26.805773 7.140347  3 
28.471692  26.114538 4.217906  3 
29.978055  25.926294 5.122211  3 
29.405579  27.543252 4.704629  3 
26.407069  27.442689 5.741690  3 
27.701949  28.639522 5.956226  3 
26.936551  27.909375 7.370593  3 
23.498117  23.881308 11.802430  3 
21.892284  23.853814 11.082168  3 
24.305590  25.455234 10.172878  3 
22.722714  26.021049 10.629920  3 
22.921442  25.169042 9.086313  3 
23.906140  27.320523 0.148131  1 
23.621023  28.269295 0.011939  1 
22.648681  28.496064 -0.043985  1 
21.961457  27.774062 0.036284  1 
20.989115  28.000831 -0.019639  1 
20.301893  27.278838 0.060628  1 
19.329552  27.505608 0.004704  1 
18.642327  26.783605 0.084973  1 
17.669986  27.010375 0.029050  1 
16.982761  26.288372 0.109318  1 
16.010420  26.515141 0.053395  1 
15.323197  25.793149 0.133662  1 
14.350856  26.019918 0.077739  1 
13.663631  25.297915 0.158007  1 
12.691290  25.524685 0.102084  1 
12.004068  24.802692 0.182351  1 
11.031726  25.029461 0.126428  1 
10.344502  24.307459 0.206696  1 
9.372160  24.534228 0.150773  1 
8.684938  23.812235 0.231040  1 
7.712596  24.039005 0.175117  1 
7.025372  23.317002 0.255385  1 
6.053030  23.543772 0.199462  4 
7.310492  22.368240 0.391576  1 
6.623267  21.646238 0.471844  1 
5.650925  21.873007 0.415921  1 
4.963703  21.151014 0.496188  1 
3.991362  21.377783 0.440265  1 
3.304137  20.655781 0.520533  1 
2.331796  20.882550 0.464610  1 
1.644574  20.160558 0.544877  1 
0.672232  20.387327 0.488954  1 
-0.014992  19.665324 0.569222  4 
28.521648  28.996655 0.751754  1 
27.166584  28.606044 1.249199  1 
26.146296  29.491116 1.087595  2 
24.907743  29.174475 1.523796  1 
24.568688  27.984039 2.145053  1 
25.602333  27.054119 2.323763  1 
25.676357  25.745984 2.901238  1 
24.738853  24.887826 3.512596  1 
25.155017  23.636767 3.983016  1 
26.482169  23.234823 3.852381  1 
27.430423  24.066430 3.250080  1 
26.996306  25.313696 2.785983  1 
27.696225  26.319274 2.163686  2 
28.681610  26.278170 1.949685  3 
26.878200  27.386428 1.871608  1 
28.502236  29.994493 0.302847  3 
28.863475  28.285020 -0.006009  3 
29.237700  29.005482 1.579223  3 
24.155549  29.940048 1.353147  3 
23.555628  27.788684 2.472916  3 
23.701893  25.191851 3.619205  3 
24.433840  22.973750 4.454666  3 
26.786468  22.258925 4.224137  3 
28.463450  23.749682 3.150621  3 
 %endblock AtomicCoordinatesAndAtomicSpecies


