NumberOfAtoms 2710
SpinPolarized yes
#FixSpin .true.
#TotalSpin 
NumberOfSpecies 4

 


%block ChemicalSpeciesLabel
1  6  c
2  1  h
3  7  n
4  8  o
%endblock ChemicalSpeciesLabel

PAO.BasisSize szp 
 PAO.EnergyShift 0.02 Ry 
 
MeshCutoff          100 Ry
MaxSCFIterations    100  
DM.NumberPulay       3  
DM.Tolerance         1e-3
WriteDenchar	.true.

%block ProjectedDensityOfStates
-10.0 10.0 0.200 500 eV
%endblock ProjectedDensityOfStates
NetCharge 0.00

%block BandLines
1  1.000  1.000 1.000  L
20 0.00   0.00   0.00  \Gamma
25 2.00   0.000  0.00  X
30 2.00   2.00   2.00  \Gamma
%endblock BandLines


LongOutput .true.
WriteCoorXmol .true.
LatticeConstant 1 Ang
%block LatticeVectors
  67.488622 0.0 0.0
  0.0 57.999997 0.0
  0.0 0.0 57.950215
%endblock LatticeVectors


 

#UseSaveData .true.  
%block kgrid_Monkhorst_Pack
1 0 0 0.0 
 0 1 0 0.0 
 0 0 1 0.0 

%endblock kgrid_Monkhorst_Pack
WriteMDXmol .true.
AtomicCoordinatesFormat Ang
%block AtomicCoordinatesAndAtomicSpecies
47.839380  7.042199 36.510673  1 
47.134689  7.746157 37.616948  1 
45.811049  7.777030 37.842608  1 
44.787112  7.109018 36.950552  1 
45.227277  8.540935 38.996240  1 
45.850380  8.360806 40.388382  1 
45.032216  9.020454 41.516015  1 
43.687228  8.351655 41.929652  1 
43.016914  9.220060 42.998310  1 
42.717687  8.073338 40.765218  1 
41.313806  7.563222 41.142495  1 
40.508668  7.353410 39.851429  1 
39.080930  6.806456 40.041811  1 
38.204865  7.784321 40.830473  1 
38.393208  6.367057 38.717784  1 
38.115753  7.439193 37.641918  1 
39.363489  8.013014 36.968697  1 
39.139777  9.195132 36.014495  1 
38.391917  10.347459 36.691295  1 
40.509260  9.695792 35.533088  1 
48.784585  6.633644 36.878005  2 
48.053141  7.750597 35.705961  2 
47.259809  6.211069 36.109538  2 
47.791024  8.294706 38.299019  2 
45.132017  7.006390 35.918517  2 
43.860306  7.690320 36.905076  2 
44.543082  6.111910 37.338539  2 
44.204303  8.206350 39.024738  2 
45.160527  9.607073 38.746483  2 
46.843353  8.831298 40.387625  2 
46.009194  7.301671 40.620734  2 
44.875205  10.078170 41.271146  2 
45.673630  9.021392 42.411543  2 
43.935519  7.388076 42.392738  2 
42.662469  10.164398 42.577156  2 
43.714796  9.448211 43.813931  2 
42.164336  8.699996 43.444747  2 
43.137258  7.246761 40.182402  2 
42.615180  8.963232 40.144871  2 
40.804841  8.311883 41.760826  2 
41.384350  6.631753 41.713504  2 
41.063590  6.713242 39.162445  2 
40.445081  8.359104 39.439618  2 
39.174715  5.888970 40.643776  2 
37.266754  8.015095 40.317352  2 
38.710137  8.735005 41.023942  2 
37.941566  7.347932 41.800332  2 
37.421115  5.933463 38.992158  2 
38.960896  5.542630 38.267642  2 
37.500971  8.231927 38.076223  2 
37.500805  6.973760 36.859254  2 
39.906998  7.206954 36.463685  2 
40.046000  8.407558 37.706512  2 
38.567903  8.854099 35.143343  2 
37.309813  10.189922 36.637905  2 
38.609005  11.306745 36.207152  2 
38.665507  10.444813 37.748738  2 
41.080851  10.141661 36.363255  2 
40.390993  10.459391 34.763195  2 
41.107114  8.880900 35.117406  2 
17.634338  30.034092 48.794872  1 
17.335075  30.384482 47.379366  1 
16.224559  30.079892 46.688080  1 
15.077632  29.267291 47.249052  1 
16.055171  30.486718 45.252458  1 
16.368150  31.937425 44.857162  1 
15.948170  32.283868 43.415054  1 
14.426905  32.432080 43.113112  1 
14.248254  32.692038 41.614452  1 
13.557840  31.244397 43.568645  1 
12.075825  31.272111 43.148760  1 
11.391671  30.009396 43.693370  1 
9.884794  29.890555 43.394972  1 
9.615343  29.797766 41.890152  1 
9.177714  28.743259 44.171393  1 
9.610535  27.288269 43.889236  1 
11.019892  26.932524 44.365158  1 
11.547349  25.549153 43.957696  1 
11.488499  25.334185 42.442594  1 
13.003802  25.427342 44.428652  1 
18.176213  30.855978 49.270412  2 
18.260570  29.138503 48.823819  2 
16.732225  29.857530 49.380198  2 
18.126368  30.943678 46.871372  2 
15.394134  28.585797 48.042764  2 
14.618581  28.641878 46.476342  2 
14.303645  29.934577 47.649030  2 
15.015106  30.287599 45.057907  2 
16.594925  29.791199 44.597933  2 
17.454226  32.089243 44.926072  2 
15.910715  32.648724 45.554143  2 
16.407355  31.563521 42.726848  2 
16.414152  33.252775 43.175337  2 
14.077494  33.324078 43.648680  2 
14.494963  31.804741 41.025711  2 
14.890643  33.516209 41.279178  2 
13.217238  32.979816 41.388947  2 
13.509945  31.276237 44.662096  2 
14.002253  30.307507 43.234007  2 
12.003898  31.271349 42.054823  2 
11.586148  32.174972 43.527867  2 
11.566358  29.921108 44.767681  2 
11.914460  29.207844 43.174470  2 
9.419652  30.821201 43.756193  2 
8.995142  28.935914 41.627165  2 
10.536436  29.724172 41.304745  2 
9.081195  30.692827 41.552601  2 
8.107069  28.808377 43.931122  2 
9.244424  28.936903 45.249646  2 
9.488527  27.078437 42.823360  2 
8.906877  26.624781 44.410773  2 
11.080668  27.064206 45.451040  2 
11.745490  27.614358 43.947465  2 
10.954055  24.773929 44.456975  2 
10.501058  24.968937 42.142306  2 
12.227217  24.594451 42.112685  2 
11.685333  26.261859 41.891965  2 
13.656753  26.122899 43.876794  2 
13.378840  24.416667 44.262256  2 
13.098167  25.656098 45.493094  2 
19.367670  35.103885 49.138592  1 
19.760437  35.907209 47.948469  1 
20.460573  35.485115 46.882850  1 
21.015288  34.084434 46.738516  1 
20.801095  36.409091 45.749040  1 
19.688764  37.285973 45.155269  1 
20.109101  38.019892 43.866563  1 
20.267474  37.177955 42.565240  1 
20.767320  38.095989 41.445935  1 
21.174013  35.939828 42.701632  1 
21.490028  35.169250 41.405568  1 
22.402401  33.983793 41.753971  1 
22.791486  33.076452 40.571098  1 
23.611683  33.837274 39.525094  1 
23.495132  31.755862 40.995367  1 
24.861248  31.846646 41.709109  1 
24.812737  32.439264 43.118290  1 
26.166538  32.698197 43.795143  1 
27.078486  33.581497 42.938789  1 
25.911119  33.391651 45.141166  1 
18.371180  35.404873 49.472772  2 
20.078217  35.283311 49.949772  2 
19.330753  34.035572 48.926620  2 
19.436322  36.951745 47.976700  2 
21.205444  33.606294 47.702783  2 
21.972763  34.089113 46.207318  2 
20.315355  33.458987 46.169993  2 
21.166738  35.743283 44.985994  2 
21.668723  37.026018 46.013815  2 
19.419697  38.053025 45.894588  2 
18.779354  36.704174 44.966966  2 
21.022106  38.594748 44.064908  2 
19.330185  38.771970 43.663951  2 
19.266104  36.827192 42.284517  2 
21.799568  38.409752 41.621421  2 
20.143581  38.995492 41.367362  2 
20.720568  37.590353 40.477014  2 
20.632404  35.204424 43.305607  2 
22.110383  36.215132 43.186057  2 
22.016083  35.828533 40.705223  2 
20.566681  34.823625 40.929503  2 
21.953805  33.385678 42.549882  2 
23.300174  34.471499 42.129732  2 
21.849957  32.767469 40.090482  2 
24.549871  33.331723 39.278472  2 
23.865803  34.850432 39.849845  2 
23.039102  33.923433 38.594978  2 
23.654061  31.170596 40.078604  2 
22.808170  31.156010 41.605972  2 
25.561784  32.394804 41.073673  2 
25.261884  30.826828 41.791665  2 
24.176963  31.813242 43.753948  2 
24.344730  33.412230 43.105501  2 
26.665013  31.740424 43.986043  2 
27.634654  32.976079 42.215765  2 
27.811985  34.116539 43.553167  2 
26.508689  34.333339 42.379700  2 
25.501617  34.404008 44.992392  2 
26.838940  33.488237 45.706518  2 
25.197332  32.830017 45.748905  2 
49.926014  0.078163 3.172415  1 
49.669846  0.365628 2.249512  1 
49.311437  1.286134 2.093945  1 
49.209192  1.919183 2.861275  1 
48.850779  2.839696 2.705702  1 
48.748534  3.472745 3.473032  1 
48.390124  4.393252 3.317466  1 
48.287879  5.026300 4.084796  1 
47.929466  5.946814 3.929223  1 
47.827221  6.579862 4.696553  1 
47.468812  7.500369 4.540986  1 
47.366567  8.133418 5.308316  1 
47.008154  9.053931 5.152743  1 
46.905909  9.686980 5.920073  1 
46.547499  10.607486 5.764507  1 
46.445254  11.240535 6.531837  1 
46.086841  12.161048 6.376264  1 
45.984596  12.794097 7.143594  1 
45.626187  13.714604 6.988027  1 
45.523942  14.347652 7.755357  1 
45.165529  15.268166 7.599784  1 
45.063284  15.901214 8.367114  1 
-0.000025  49.228342 4.527571  1 
0.540110  50.000045 4.863323  1 
1.534898  49.922771 4.929781  1 
1.989559  49.073788 4.660486  1 
2.984355  48.996509 4.726943  1 
3.439008  48.147532 4.457649  1 
4.433805  48.070252 4.524105  1 
4.888458  47.221276 4.254812  1 
5.883254  47.143996 4.321268  1 
6.337907  46.295019 4.051974  1 
7.332703  46.217740 4.118431  1 
7.787356  45.368763 3.849137  1 
8.782153  45.291483 3.915594  1 
9.236806  44.442506 3.646300  1 
10.231602  44.365227 3.712757  1 
10.686255  43.516250 3.443463  1 
11.681051  43.438970 3.509919  1 
36.503003  1.481839 0.011654  1 
36.524646  0.482132 0.000772  1 
37.401171  0.000866 0.009620  1 
38.256062  0.519306 0.029351  1 
39.132596  0.038040 0.038200  1 
39.987477  0.556480 0.057930  1 
40.864011  0.075213 0.066779  1 
41.718892  0.593653 0.086509  1 
42.595426  0.112387 0.095358  1 
43.450307  0.630827 0.115089  1 
44.326841  0.149561 0.123937  1 
45.181722  0.668001 0.143668  1 
46.058257  0.186735 0.152516  1 
46.913137  0.705175 0.172247  1 
47.789672  0.223908 0.181096  1 
48.644553  0.742348 0.200826  1 
49.521087  0.261082 0.209675  1 
13.175878  29.105867 35.036978  1 
13.369668  28.418408 33.713661  1 
13.449849  29.193100 32.553597  1 
13.637662  28.555058 31.343276  1 
13.755567  27.219468 31.207519  3 
13.685877  26.464635 32.316919  1 
13.829238  25.089713 32.184931  1 
13.781353  24.232573 33.286475  1 
13.569511  24.754895 34.553820  1 
13.417023  26.131611 34.714128  1 
13.484066  27.009591 33.606245  1 
13.158020  30.195439 34.925716  2 
13.999545  28.862749 35.716000  2 
12.225320  28.803796 35.488141  2 
13.373099  30.274707 32.585783  2 
13.706355  29.120239 30.418193  2 
13.991084  24.674256 31.193031  2 
13.910523  23.162596 33.147069  2 
13.527169  24.096578 35.417543  2 
13.250419  26.515244 35.717189  2 
47.608020  6.837655 43.562546  1 
47.983382  6.729956 45.006059  1 
48.146974  7.881194 45.711994  3 
48.485881  7.824995 47.018337  1 
48.690068  6.656111 47.732531  1 
48.527567  5.455085 47.028088  1 
48.641420  4.071521 47.378748  1 
48.960357  3.382634 48.567371  1 
48.983302  1.982952 48.566955  1 
48.694734  1.268608 47.406610  1 
48.375362  1.927517 46.216079  1 
48.357591  3.327100 46.235201  1 
48.082684  4.222737 45.229921  3 
47.842449  3.961282 44.285254  2 
48.177806  5.519389 45.680408  1 
47.512302  7.884706 43.259068  2 
46.650287  6.338978 43.384937  2 
48.374297  6.367286 42.938780  2 
48.594979  8.791924 47.502245  2 
48.960861  6.676646 48.780480  2 
49.186818  3.930305 49.477235  2 
49.228986  1.450000 49.482239  2 
48.717676  0.181285 47.426053  2 
48.151573  1.367280 45.314181  2 
0.785059  2.140062 44.834224  1 
1.934641  2.977641 45.306508  1 
1.861429  4.361607 45.289048  1 
2.891196  5.109462 45.868871  1 
2.798746  6.511448 45.916179  1 
3.766745  7.277546 46.584857  1 
3.677030  8.665930 46.719422  1 
4.567267  9.430452 47.395075  3 
5.608173  8.785932 47.955618  1 
5.811451  7.419134 47.861809  1 
4.872474  6.642234 47.169519  1 
4.991277  5.242623 47.071346  1 
3.999641  4.448119 46.438872  1 
4.015533  3.036398 46.353443  1 
5.107012  2.183628 46.931003  1 
2.996419  2.317445 45.811725  3 
0.003542  2.746697 44.366271  2 
0.343271  1.618089 45.689762  2 
1.128398  1.399888 44.105947  2 
0.989264  4.852338 44.867845  2 
1.945662  7.010892 45.465348  2 
2.847703  9.220229 46.288626  2 
6.300377  9.415482 48.508293  2 
6.675903  6.969214 48.339711  2 
5.857207  4.772090 47.525272  2 
6.036036  2.724422 47.119390  2 
5.351129  1.375324 46.232440  2 
4.764388  1.736882 47.870166  2 
3.388839  43.680394 48.001536  1 
3.567220  42.217998 47.725958  1 
2.666850  41.516257 46.937484  1 
2.852364  40.136088 46.688774  1 
1.977665  39.339330 45.890386  1 
0.856286  39.888120 45.290610  4 
2.177395  37.965193 45.651946  1 
1.313049  37.260071 44.883863  3 
1.536475  35.948752 44.677762  1 
2.608059  35.265004 45.208352  1 
3.512937  35.967960 46.003267  1 
4.687359  35.227466 46.587061  1 
3.300264  37.352716 46.235995  1 
4.169862  38.134519 47.027683  1 
3.976560  39.513955 47.269995  1 
4.843665  40.307830 48.060273  1 
6.079493  39.788307 48.741782  1 
4.641038  41.631045 48.282456  3 
2.497181  44.082132 47.510834  2 
4.258643  44.235246 47.636319  2 
3.289443  43.845255 49.078907  2 
1.827213  42.063687 46.526016  2 
0.771670  40.826357 45.490440  2 
0.803208  35.448406 44.052223  2 
2.729351  34.207274 45.002700  2 
4.683673  34.171250 46.298555  2 
4.656668  35.267941 47.680832  2 
5.626612  35.661233 46.228483  2 
5.028103  37.638743 47.467381  2 
6.282111  38.730122 48.578597  2 
5.989333  39.940167 49.822468  2 
6.952270  40.344517 48.383877  2 
25.797194  2.121820 16.620595  1 
24.419974  2.132289 17.306073  1 
24.088003  0.710031 17.769191  1 
24.418273  3.129327 18.482713  1 
24.711944  4.537581 18.188272  3 
24.096962  5.500646 17.454542  1 
24.444406  6.667719 17.661301  4 
22.939933  5.177835 16.488816  1 
23.085218  5.978941 15.165547  1 
24.369775  5.576559 14.428296  1 
21.895369  5.782162 14.213435  1 
21.722104  5.547545 17.208555  3 
21.000316  4.790693 18.087997  1 
20.238970  5.366546 18.860992  4 
21.217182  3.259870 18.151569  1 
19.843282  2.542675 18.278522  1 
18.962087  2.791691 17.049691  1 
19.994004  1.029145 18.478844  1 
22.011362  3.028691 19.358039  3 
23.344996  3.048411 19.589140  1 
23.695394  3.093021 20.775005  4 
25.806113  1.427199 15.773753  2 
26.584763  1.808112 17.315578  2 
26.058814  3.113182 16.237152  2 
23.691985  2.393199 16.541299  2 
24.765782  0.378888 18.562743  2 
24.170241  0.002199 16.937024  2 
23.063923  0.647046 18.146599  2 
25.320239  2.834849 19.046734  2 
25.355063  4.967655 18.847310  2 
22.914455  4.126352 16.244628  2 
23.148547  7.051512 15.390491  2 
24.336629  4.527069 14.115569  2 
25.254170  5.716495 15.056563  2 
24.508123  6.190968 13.531847  2 
21.677055  4.721562 14.048355  2 
22.104281  6.232371 13.234906  2 
20.991468  6.263088 14.600329  2 
21.594755  6.540514 17.386147  2 
21.741279  2.881066 17.279664  2 
19.309357  2.933844 19.155517  2 
19.423802  2.388066 16.142667  2 
18.777779  3.858856 16.894645  2 
17.985555  2.310259 17.174743  2 
20.573640  0.575568 17.668376  2 
19.011911  0.542561 18.500661  2 
20.488962  0.798560 19.427532  2 
21.505835  3.152588 20.231029  2 
29.759169  3.078098 4.216357  1 
30.881382  4.061661 4.590477  1 
30.250975  5.392579 5.013263  1 
31.759884  3.466620 5.709732  1 
32.438589  2.191951 5.443848  3 
33.396108  1.792776 4.567565  1 
33.963869  0.722925 4.809620  4 
33.842140  2.676780 3.386402  1 
34.037965  1.824756 2.102024  1 
32.710926  1.186793 1.669002  1 
34.594475  2.638514 0.923435  1 
35.096068  3.292879 3.817570  3 
35.266469  4.437716 4.543885  1 
36.338766  4.606520 5.118739  4 
34.096429  5.438705 4.697250  1 
34.629491  6.891866 4.548078  1 
35.212625  7.137553 3.152323  1 
33.543093  7.940321 4.820294  1 
33.583995  5.234387 6.052019  3 
32.676764  4.369164 6.562606  1 
32.665309  4.250088 7.794164  4 
29.136725  3.484245 3.411791  2 
29.105092  2.876873 5.072728  2 
30.165984  2.123075 3.868930  2 
31.444709  4.254279 3.680267  2 
29.681955  5.288689 5.942880  2 
29.569435  5.762009 4.239109  2 
31.014473  6.160294 5.164351  2 
31.012858  3.159733 6.462163  2 
32.380278  1.529511 6.212399  2 
33.112951  3.444103 3.173346  2 
34.750552  1.014489 2.303777  2 
31.976386  1.949312 1.387325  2 
32.278891  0.576929 2.467668  2 
32.862808  0.530067 0.805346  2 
34.012324  3.549345 0.746599  2 
34.570906  2.047120 -0.000443  2 
35.637197  2.924521 1.093573  2 
35.884406  2.661554 3.934600  2 
33.309512  5.267910 3.969253  2 
35.432681  7.060582 5.278578  2 
34.447811  7.021996 2.377409  2 
36.032435  6.448042 2.930205  2 
35.616686  8.153652 3.079460  2 
32.677012  7.795931 4.166365  2 
33.929317  8.951289 4.645595  2 
33.200873  7.901236 5.859293  2 
34.187037  5.582261 6.792521  2 
6.597685  6.396731 36.743005  1 
7.817423  5.515049 37.061749  1 
8.412115  5.960453 38.401696  1 
7.408030  4.028322 37.086450  1 
6.829038  3.456403 35.864241  3 
7.293026  3.241869 34.606169  1 
6.648044  2.461807 33.898336  4 
8.621059  3.847415 34.110996  1 
8.479984  4.372276 32.655476  1 
7.451237  5.509240 32.588161  1 
9.807123  4.881265 32.071857  1 
9.596196  2.761375 34.197271  3 
10.344073  2.384095 35.276883  1 
10.823719  1.253319 35.284444  4 
10.496182  3.338829 36.485120  1 
11.969229  3.320399 36.982994  1 
12.932692  3.841818 35.911359  1 
12.160828  4.145536 38.262079  1 
9.615150  2.799753 37.520935  3 
8.297195  2.972328 37.777038  1 
7.778438  2.160023 38.552987  4 
6.879405  7.454643 36.708710  2 
5.816995  6.285610 37.504487  2 
6.162943  6.139245 35.771937  2 
8.563790  5.726318 36.299369  2 
7.726709  5.757778 39.231097  2 
8.624544  7.035207 38.393485  2 
9.355334  5.446474 38.604937  2 
6.531895  4.032868 37.757828  2 
6.012677  2.874720 36.031865  2 
8.934617  4.669844 34.736444  2 
8.127803  3.561198 32.004985  2 
7.781599  6.379157 33.166461  2 
6.477826  5.193642 32.974587  2 
7.300053  5.831251 31.551960  2 
10.296464  5.599264 32.738795  2 
9.639740  5.384149 31.111158  2 
10.502393  4.056943 31.884484  2 
9.453052  1.983567 33.558312  2 
10.210968  4.358046 36.243788  2 
12.260152  2.287165 37.217520  2 
12.718414  4.885702 35.660009  2 
12.874479  3.249425 34.993464  2 
13.967815  3.785461 36.266849  2 
11.831466  5.180176 38.122055  2 
13.217483  4.167331 38.553199  2 
11.604116  3.717165 39.101562  2 
9.943902  1.941871 37.955655  2 
6.208255  6.048296 25.504398  1 
5.996403  7.072020 26.341006  1 
6.493403  7.075840 27.780445  1 
7.808972  6.470489 28.266911  1 
7.897130  5.030990 28.176253  1 
6.742797  4.406831 28.879918  1 
6.848192  2.858471 28.560048  1 
6.905447  2.530964 26.764232  1 
8.138283  2.758737 25.862101  1 
9.609421  2.391445 26.232473  1 
10.302953  2.827956 27.561022  1 
10.055155  2.088607 28.915127  1 
8.685451  2.104787 29.494217  1 
7.391587  1.084469 28.484748  1 
5.544191  1.371383 28.223722  1 
4.534793  1.162266 27.040827  1 
3.130908  1.740899 27.322756  1 
5.100997  8.064662 25.904272  4 
5.115231  9.380893 26.494249  1 
6.026456  10.359876 25.680682  1 
5.627911  10.898836 24.299302  1 
3.692504  9.976107 26.694695  1 
2.768890  9.390083 27.677671  4 
2.997461  9.499841 29.030102  1 
4.098965  9.718733 29.512460  4 
1.717435  9.214841 29.860485  1 
1.061981  10.238161 30.849546  1 
1.769710  10.690780 32.150570  1 
0.942313  11.698802 33.001229  1 
1.605707  12.201454 34.311244  1 
2.917697  12.992004 34.237729  1 
4.199718  12.376417 33.594860  1 
5.133803  11.167263 33.838233  1 
5.245998  9.813133 33.943268  1 
4.403339  8.533277 34.069258  1 
4.458789  7.381461 32.987129  1 
3.646389  6.100782 33.411881  1 
3.701216  4.935768 32.405262  1 
2.817486  3.723857 32.781877  1 
2.789539  2.557999 31.776065  1 
2.127194  2.885416 30.438453  1 
2.800934  3.938887 29.579100  1 
6.779562  5.191064 25.788019  2 
5.764211  5.971360 24.521021  2 
5.680320  6.633727 28.366765  2 
6.637470  8.084199 28.126831  2 
7.889029  6.652683 29.347215  2 
8.686838  6.884682 27.777010  2 
8.862468  4.737673 28.572772  2 
7.951794  4.713991 27.153792  2 
5.759067  4.643835 28.467573  2 
6.748617  4.509174 29.979767  2 
6.068471  2.766351 29.497597  2 
6.918431  2.194425 29.595980  2 
6.034069  2.949306 26.272105  2 
6.805042  1.379219 26.482296  2 
8.079028  3.797810 25.628180  2 
7.907252  2.282741 24.872779  2 
10.179333  2.899400 25.438540  2 
9.802475  1.320064 26.085193  2 
10.239094  3.916543 27.622549  2 
11.381347  2.672548 27.422433  2 
10.669803  2.565960 29.703323  2 
10.210307  1.035687 28.836388  2 
8.586724  3.204989 29.583571  2 
8.510460  1.937681 30.559889  2 
7.653276  0.000048 28.390901  2 
8.159601  1.447928 27.646459  2 
5.203231  2.530799 28.069861  2 
5.001992  1.332326 29.179842  2 
4.567196  0.108347 26.933650  2 
4.719706  1.671219 26.080686  2 
2.673536  1.188875 28.135252  2 
2.514494  1.678973 26.423921  2 
3.134016  2.811233 27.536578  2 
5.542767  9.340609 27.487049  2 
7.019060  9.907675 25.572663  2 
6.153248  11.250905 26.307992  2 
5.358308  10.133800 23.567158  2 
6.490148  11.441623 23.878627  2 
4.816148  11.632369 24.362811  2 
3.157467  9.938463 25.739056  2 
3.796261  11.031723 26.967232  2 
1.870198  8.256376 30.368957  2 
0.931328  9.021117 29.114745  2 
0.126596  9.762035 31.178786  2 
0.768932  11.132543 30.289915  2 
2.700020  11.159497 31.858626  2 
1.997891  9.829192 32.783839  2 
-0.005947  11.219380 33.294788  2 
0.645152  12.563135 32.391668  2 
1.738588  11.375011 35.012139  2 
0.865764  12.871939 34.790651  2 
3.143308  13.401767 35.237040  2 
2.691849  13.908744 33.657245  2 
4.899489  13.233214 33.689231  2 
4.023444  12.376997 32.520188  2 
6.150145  11.599864 33.806070  2 
6.301622  9.508832 34.012302  2 
3.365253  8.786562 34.278114  2 
4.793038  8.052627 34.981073  2 
5.495120  7.073069 32.789278  2 
4.055058  7.757568 32.039179  2 
2.593579  6.387577 33.528328  2 
4.000432  5.715350 34.370408  2 
4.724412  4.588238 32.226940  2 
3.358743  5.393486 31.495955  2 
1.782641  4.042259 32.958356  2 
3.190878  3.320376 33.730205  2 
2.209571  1.729775 32.221222  2 
3.795823  2.148253 31.625368  2 
1.086871  3.178040 30.600902  2 
2.081130  1.953902 29.867811  2 
2.794478  4.945384 29.960929  2 
2.229025  4.080620 28.661445  2 
3.838475  3.673615 29.366738  2 
11.880544  12.723615 13.611556  1 
11.205297  13.559043 14.410872  1 
11.537637  13.736016 15.886419  1 
12.940468  13.703716 16.490441  1 
13.609066  12.424037 16.430861  1 
12.750810  11.374238 17.046100  1 
13.497988  10.006218 16.761338  1 
13.830775  9.763354 14.982078  1 
14.936900  10.485901 14.182067  1 
16.395048  10.736314 14.679485  1 
16.741077  11.390487 16.053856  1 
16.701602  10.588757 17.394494  1 
15.399041  10.040242 17.857271  1 
14.715111  8.603848 16.760379  1 
12.937483  8.126089 16.341914  1 
12.199833  7.549817 15.082693  1 
10.663771  7.507649 15.237385  1 
10.024978  14.114198 13.885062  4 
9.458133  15.313041 14.452688  1 
9.960787  16.591459 13.701944  1 
9.494380  16.949674 12.283609  1 
7.904949  15.279971 14.524353  1 
7.218458  14.352882 15.436474  4 
7.270643  14.520135 16.801269  1 
8.146203  15.155633 17.369980  4 
6.150536  13.727544 17.526795  1 
5.058612  14.380821 18.441113  1 
5.413356  15.055971 19.788976  1 
4.182361  15.628495 20.551332  1 
4.475775  16.331367 21.903652  1 
5.358466  17.585169 21.926705  1 
6.828230  17.551143 21.402834  1 
8.147135  16.817136 21.742719  1 
8.787015  15.621585 21.878738  1 
8.525080  14.108458 21.954981  1 
9.129782  13.097362 20.900097  1 
8.871050  11.590086 21.276558  1 
9.474267  10.565250 20.297076  1 
9.126770  9.093018 20.618518  1 
9.654832  8.034008 19.632967  1 
9.029763  8.091469 18.239734  1 
9.289741  9.343102 17.422397  1 
12.723554  12.164487 13.955635  2 
11.588252  12.492561 12.596024  2 
10.926602  12.992603 16.410168  2 
11.233455  14.710135 16.227142  2 
12.850593  13.882436 17.570554  2 
13.613828  14.445908 16.068609  2 
14.574292  12.537625 16.911043  2 
13.871312  12.175245 15.421786  2 
11.792852  11.202010 16.549534  2 
12.623887  11.449597 18.140808  2 
12.747110  9.589870 17.632133  2 
13.744252  9.407622 17.810186  2 
12.908634  9.803836 14.412415  2 
14.227264  8.674459 14.711538  2 
14.483028  11.416989 13.927155  2 
15.000211  9.975794 13.184827  2 
16.775092  11.445773 13.927567  2 
17.015397  9.836783 14.566226  2 
16.238605  12.359476 16.092139  2 
17.797930  11.685872 16.008020  2 
17.003947  11.258605 18.223228  2 
17.274298  9.689542 17.346075  2 
14.857810  11.005272 17.920192  2 
15.218888  9.796804 18.907264  2 
15.398848  7.719068 16.706283  2 
15.337642  9.261849 15.983097  2 
12.171733  9.052148 16.141378  2 
12.380105  7.853741 17.250113  2 
12.663428  6.600711 14.995742  2 
12.242384  8.108018 14.133116  2 
10.402525  6.802917 16.017880  2 
10.201360  7.219218 14.291506  2 
10.217097  8.484096 15.433285  2 
9.781896  15.430021 15.478142  2 
11.056678  16.580146 13.684258  2 
9.664974  17.446004 14.323050  2 
9.617892  16.154758 11.544114  2 
10.095893  17.801910 11.927361  2 
8.453459  17.292141 12.267415  2 
7.511593  15.047642 13.528250  2 
7.551074  16.282448 14.787371  2 
6.634396  12.902771 18.061738  2 
5.574007  13.247222 16.721484  2 
4.371107  13.561780 18.699085  2 
4.476999  15.091343 17.844565  2 
6.096140  15.865488 19.567865  2 
5.916537  14.347906 20.452966  2 
3.487404  14.801914 20.772734  2 
3.613254  16.310804 19.905182  2 
4.872344  15.615749 22.626523  2 
3.491350  16.637326 22.308859  2 
5.316112  18.032309 22.934525  2 
4.830794  18.343642 21.314607  2 
7.112423  18.615468 21.541152  2 
6.756219  17.500720 20.317354  2 
8.901410  17.623442 21.788198  2 
9.866024  15.767680 22.040305  2 
7.459659  13.917556 22.072592  2 
8.998725  13.808822 22.903756  2 
10.214927  13.236935 20.794202  2 
8.688516  13.296373 19.915851  2 
7.786333  11.425634 21.300322  2 
9.269926  11.362304 22.267361  2 
10.561617  10.663352 20.210183  2 
9.052701  10.862907 19.355101  2 
8.040708  8.963603 20.703079  2 
9.551402  8.856719 21.601063  2 
9.423675  7.034031 20.041737  2 
10.749588  8.067853 19.573205  2 
7.950270  7.936524 18.310279  2 
9.410790  7.231385 17.682467  2 
8.846215  10.254141 17.785941  2 
8.787275  9.259294 16.458155  2 
10.359791  9.522884 17.301442  2 
19.063539  8.201246 9.511480  1 
18.543856  7.323518 8.644111  1 
18.726255  7.447976 7.137377  1 
19.982961  7.958367 6.434519  1 
20.285477  9.355216 6.647700  1 
19.107593  10.190481 6.284209  1 
19.489324  11.663308 6.726820  1 
19.962218  11.749666 8.488754  1 
21.311895  11.270717 9.067186  1 
22.710542  11.514135 8.418449  1 
23.046659  11.175885 6.932116  1 
22.627792  12.105685 5.748197  1 
21.178917  12.318338 5.488901  1 
20.275651  13.340384 6.857731  1 
18.500995  13.232595 7.492005  1 
17.797427  13.401051 8.884294  1 
16.299559  13.025311 8.864203  1 
17.630413  6.390497 9.166529  4 
17.340529  5.167483 8.458757  1 
18.256855  3.995942 8.947091  1 
18.082990  3.332992 10.321061  1 
15.839021  4.767098 8.520206  1 
14.821432  5.574524 7.830785  4 
14.747293  5.613730 6.457348  1 
15.683959  5.335576 5.723058  4 
13.374671  6.145203 5.964732  1 
12.393798  5.337416 5.047990  1 
12.747153  4.978171 3.583582  1 
11.630551  4.187130 2.840768  1 
11.932208  3.784736 1.372446  1 
13.109215  2.848408 1.073051  1 
14.568978  3.228098 1.473965  1 
15.589803  4.345342 1.152279  1 
15.863265  5.680414 1.161743  1 
15.197354  7.052664 1.355314  1 
15.634109  8.042813 2.508401  1 
14.935676  9.450708 2.405582  1 
15.357992  10.463598 3.486900  1 
14.590980  11.805614 3.439680  1 
14.933077  12.828774 4.538669  1 
14.523788  12.409618 5.950016  1 
15.209334  11.185602 6.527966  1 
19.676172  9.017791 9.195863  2 
18.847951  8.201243 10.571502  2 
17.878123  8.050358 6.793648  2 
18.655038  6.482495 6.668014  2 
19.811422  7.908111 5.350679  2 
20.877693  7.388533 6.673166  2 
21.178633  9.586130 6.078411  2 
20.594078  9.530514 7.659105  2 
18.207664  10.015102 6.878594  2 
18.871104  10.229778 5.205922  2 
18.552465  11.962028 5.999835  2 
19.434072  12.442312 5.773329  2 
19.162659  11.372725 9.117340  2 
20.082115  12.859758 8.900345  2 
21.159836  10.223614 9.202671  2 
21.358830  11.639142 10.125848  2 
23.357127  10.847722 9.010874  2 
23.075671  12.529184 8.626232  2 
22.822066  10.118335 6.777099  2 
24.141251  11.189661 6.842843  2 
22.993909  11.666915 4.799329  2 
22.939458  13.115592 5.896060  2 
20.913184  11.256838 5.313465  2 
20.811519  12.639151 4.510994  2 
20.697974  14.367382 6.999773  2 
21.143208  12.788329 7.463750  2 
18.042920  12.108931 7.600253  2 
17.783019  13.454622 6.688958  2 
17.996242  14.422145 9.087078  2 
18.105455  12.755794 9.723257  2 
15.764194  13.724832 8.233233  2 
15.897432  13.040779 9.878974  2 
16.110766  11.997689 8.548456  2 
17.554326  5.286055 7.405052  2 
19.302913  4.315748 8.877066  2 
18.126831  3.183982 8.220909  2 
18.079073  4.023491 11.167936  2 
18.930514  2.647073 10.483101  2 
17.182546  2.709887 10.365819  2 
15.524140  4.742192 9.569566  2 
15.737563  3.750145 8.126657  2 
13.549266  7.137481 5.534108  2 
12.794611  6.329273 6.881939  2 
11.485200  5.954195 4.984156  2 
12.102769  4.417553 5.565809  2 
13.644123  4.374039 3.613115  2 
12.955570  5.882463 3.005441  2 
10.717336  4.804041 2.814729  2 
11.350031  3.290947 3.410948  2 
12.029463  4.673803 0.746330  2 
11.023784  3.268896 1.004244  2 
13.064085  2.547136 0.012567  2 
12.884514  1.896267 1.593932  2 
15.109105  2.317029 1.140946  2 
14.620979  3.109832 2.555309  2 
16.521215  3.800351 0.914403  2 
16.913274  5.870046 0.891137  2 
14.113746  6.946897 1.357647  2 
15.451969  7.599047 0.432854  2 
16.721328  8.204488 2.501329  2 
15.387799  7.596399 3.479538  2 
13.852350  9.301752 2.497435  2 
15.132955  9.913269 1.436150  2 
16.433832  10.667818 3.467740  2 
15.151756  9.934808 4.398755  2 
13.508252  11.631174 3.466142  2 
14.811599  12.282472 2.477662  2 
14.393189  13.767247 4.318960  2 
15.995382  13.099741 4.502729  2 
13.442216  12.259399 5.993895  2 
14.725828  13.259620 6.607395  2 
14.985242  10.243467 6.057820  2 
14.826152  10.992969 7.530623  2 
16.294792  11.302794 6.530362  2 
2.932517  47.096611 9.183349  1 
3.370936  47.722167 9.828699  1 
4.362428  47.695194 9.956046  1 
4.915499  47.042666 9.438044  1 
5.906991  47.015693 9.565391  1 
6.460062  46.363172 9.047395  1 
7.451553  46.336199 9.174743  1 
8.004625  45.683671 8.656740  1 
8.996116  45.656698 8.784088  1 
9.549187  45.004177 8.266092  1 
10.540678  44.977204 8.393439  1 
11.093750  44.324676 7.875437  1 
12.085241  44.297703 8.002784  1 
12.638313  43.645175 7.484782  1 
13.629804  43.618202 7.612129  1 
14.182875  42.965681 7.094134  1 
15.174367  42.938708 7.221481  1 
15.727438  42.286180 6.703479  1 
16.718930  42.259207 6.830826  1 
17.272001  41.606686 6.312830  1 
18.263492  41.579714 6.440178  1 
18.816564  40.927185 5.922175  1 
19.808055  40.900212 6.049523  1 
20.361126  40.247691 5.531527  1 
21.352617  40.220719 5.658874  1 