NumberOfAtoms 148
SpinPolarized yes
#FixSpin .true.
#TotalSpin 
NumberOfSpecies 3

 
MD.TypeOfRun  nose
MD.FinalTimeStep 250
MD.LengthTimeStep 1.0  fs
MD.InitialTemperature 300 K 
MD.TargetTemperature  300  K


%block ChemicalSpeciesLabel
1  6  c
2  7  n
3  1  h
%endblock ChemicalSpeciesLabel

PAO.BasisSize dzp 
 PAO.EnergyShift 0.02 Ry 
 
MeshCutoff          100 Ry
MaxSCFIterations    100  
DM.NumberPulay       3  
DM.Tolerance         1e-3
WriteDenchar	.true.

%block ProjectedDensityOfStates
-10.0 10.0 0.200 500 eV
%endblock ProjectedDensityOfStates
NetCharge 0.00

%block BandLines
1  1.000  1.000 1.000  L
20 0.00   0.00   0.00  \Gamma
25 2.00   0.000  0.00  X
30 2.00   2.00   2.00  \Gamma
%endblock BandLines


LongOutput .true.
WriteCoorXmol .true.
LatticeConstant 1 Ang
%block LatticeVectors
  29.00791 0.0 0.0
  0.0 21.63986 0.0
  0.0 0.0 24.40321
%endblock LatticeVectors


 

#UseSaveData .true.  
%block kgrid_Monkhorst_Pack
1 0 0 0.0 
 0 1 0 0.0 
 0 0 1 0.0 

%endblock kgrid_Monkhorst_Pack
WriteMDXmol .true.
AtomicCoordinatesFormat Ang
%block AtomicCoordinatesAndAtomicSpecies
-2.33276  0.26697 0.71999  1 
-2.56909  -0.97108 1.37616  1 
-4.01769  -1.30896 1.71448  1 
-5.14015  -0.39693 1.12173  1 
-4.67084  1.02825 0.84995  1 
-3.33719  1.24553 0.53466  1 
-1.03675  0.52771 0.23699  1 
0.01732  -0.35749 0.47200  1 
-0.13301  -1.45182 1.35446  1 
-1.46025  -1.81383 1.75186  1 
1.26279  -0.15140 -0.18608  1 
2.35969  -0.96152 0.10770  1 
2.21476  -1.77532 1.25741  1 
0.98875  -2.06609 1.78835  2 
1.40883  0.91102 -1.11082  1 
2.52998  1.00389 -1.96910  1 
3.48492  -0.04835 -1.93452  1 
3.46578  -0.90792 -0.81791  1 
-0.77998  1.73067 -0.47350  1 
0.44141  1.90385 -1.16177  1 
-3.02273  2.52008 -0.00328  1 
-1.72298  2.74569 -0.49613  1 
-5.63736  1.97964 0.68970  2 
-5.33183  3.21716 0.21486  1 
-4.02069  3.51282 -0.13024  1 
4.49725  -0.55526 -2.83923  1 
5.21163  -1.50935 -2.14156  1 
4.63757  -1.62380 -0.90041  2 
4.82578  -0.36771 -4.20845  1 
5.84307  -1.13791 -4.85152  1 
6.58334  -2.06196 -4.07218  1 
6.27919  -2.21657 -2.69771  1 
0.68711  3.09070 -1.90140  1 
1.81637  3.18203 -2.73086  1 
2.70069  2.11889 -2.80567  1 
-1.35227  3.99941 -1.03718  1 
-0.17706  4.15635 -1.77148  1 
-3.64735  4.83034 -0.76018  1 
-2.18440  5.18601 -0.71336  1 
-1.72374  -3.11786 2.56880  1 
-0.76367  -4.28750 2.27906  1 
-1.85317  -2.85428 4.09539  1 
-2.10233  -4.08551 4.99471  1 
-3.36885  -4.86895 4.67325  1 
3.41116  -2.29056 2.03532  1 
3.41985  -1.84748 3.51393  1 
4.63483  -2.36945 4.31882  1 
5.96843  -1.89126 3.73205  1 
7.23440  -2.30326 4.50239  1 
8.51978  -1.72923 3.83927  1 
8.53337  -0.18489 3.86231  1 
9.76797  0.43396 3.22328  1 
9.78056  -2.30905 4.49349  1 
7.66102  -3.00803 -4.58750  1 
9.08795  -2.45522 -4.47151  1 
10.14651  -3.48140 -4.86133  1 
5.93772  -0.99952 -6.37480  1 
7.25436  -0.45308 -6.94933  1 
7.26647  -0.23367 -8.48576  1 
8.65519  0.25878 -8.94113  1 
6.84397  -1.47684 -9.29416  1 
7.68376  -2.71806 -9.02347  1 
-6.51192  4.18966 0.16559  1 
-6.58517  5.21107 -0.98912  1 
-7.71410  6.24793 -0.92219  1 
-7.52857  7.25891 -2.06646  1 
-9.08369  5.59753 -0.97435  1 
-6.41714  -0.53230 1.99840  1 
-7.64154  0.26158 1.54582  1 
-4.10853  -1.32821 2.80476  3 
-4.22731  -2.32519 1.34982  3 
-5.38917  -0.80235 0.12869  3 
4.95240  -2.30015 -0.22122  3 
4.20583  0.30273 -4.80017  3 
6.81679  -2.94051 -2.09106  3 
1.99281  4.07455 -3.31281  3 
3.57050  2.20509 -3.45389  3 
0.04994  5.11797 -2.21714  3 
-3.97285  4.79855 -1.80988  3 
-4.11809  5.64285 -0.21043  3 
-1.92697  5.52244 0.29967  3 
-1.99495  6.02432 -1.39340  3 
-2.69224  -3.49937 2.22553  3 
0.23651  -4.12546 2.69030  3 
-0.68121  -4.47505 1.20374  3 
-1.12719  -5.21713 2.73041  3 
-2.66714  -2.14276 4.27606  3 
-0.94096  -2.36182 4.45467  3 
-2.16459  -3.74953 6.03831  3 
-1.24314  -4.76429 4.95450  3 
-4.26236  -4.24865 4.79169  3 
-3.46546  -5.72542 5.35142  3 
-3.35119  -5.26308 3.65413  3 
4.32451  -1.89132 1.59762  3 
3.44852  -3.38157 1.95712  3 
2.50115  -2.18327 4.00883  3 
3.40962  -0.74899 3.56186  3 
4.60830  -3.46385 4.35379  3 
4.53967  -2.01255 5.35309  3 
5.91260  -0.80250 3.65189  3 
6.07553  -2.29181 2.71964  3 
7.29782  -3.39950 4.50423  3 
7.17717  -1.98676 5.55114  3 
8.52566  -2.05344 2.79002  3 
8.43984  0.17502 4.89385  3 
7.67091  0.20350 3.31145  3 
10.67484  0.19720 3.78551  3 
9.67153  1.52411 3.20283  3 
9.88952  0.08388 2.19335  3 
9.89792  -1.95678 5.52345  3 
10.68013  -2.02410 3.93573  3 
9.75494  -3.40305 4.50179  3 
7.43750  -3.32623 -5.61001  3 
7.60898  -3.93346 -3.99175  3 
9.29031  -2.10361 -3.45272  3 
9.20927  -1.58551 -5.11928  3 
10.13261  -4.35390 -4.19949  3 
11.14315  -3.03044 -4.79760  3 
10.00154  -3.82554 -5.89027  3 
5.13149  -0.33829 -6.72463  3 
5.70481  -1.97959 -6.80635  3 
8.05462  -1.15268 -6.71589  3 
7.50513  0.49534 -6.45734  3 
6.55156  0.56301 -8.73192  3 
9.46643  -0.28039 -8.43938  3 
8.77951  1.32284 -8.71411  3 
8.79598  0.13748 -10.02190  3 
6.89713  -1.24065 -10.36490  3 
5.78962  -1.70641 -9.09862  3 
8.73784  -2.47799 -8.86108  3 
7.62409  -3.40573 -9.87265  3 
7.31666  -3.25005 -8.14087  3 
-6.53833  4.71926 1.12580  3 
-7.42619  3.58297 0.12284  3 
-6.59135  4.67795 -1.94737  3 
-5.71413  5.85110 -1.00752  3 
-7.62879  6.80750 0.01896  3 
-7.36007  6.75670 -3.02567  3 
-6.65760  7.89891 -1.87492  3 
-8.39812  7.91444 -2.16989  3 
-9.13658  4.85267 -1.77377  3 
-9.86476  6.34475 -1.14242  3 
-9.29959  5.10057 -0.02350  3 
-6.19121  -0.25428 3.03475  3 
-6.70541  -1.59206 2.01290  3 
-7.56099  1.31496 1.83230  3 
-8.54540  -0.10721 2.03942  3 
-7.78904  0.19593 0.46330  3 
 %endblock AtomicCoordinatesAndAtomicSpecies

