NumberOfAtoms 64
SpinPolarized yes
#FixSpin .true.
#TotalSpin 
NumberOfSpecies 3

 
MD.TypeOfRun  nose
MD.FinalTimeStep 250
MD.LengthTimeStep 1.0  fs
MD.InitialTemperature 300 K 
MD.TargetTemperature  300  K


%block ChemicalSpeciesLabel
1  6  c
2  7  n
3  1  h
%endblock ChemicalSpeciesLabel

PAO.BasisSize dzp 
 PAO.EnergyShift 0.02 Ry 
 
MeshCutoff          100 Ry
MaxSCFIterations    100  
DM.NumberPulay       3  
DM.Tolerance         1e-3
WriteDenchar	.true.

%block ProjectedDensityOfStates
-10.0 10.0 0.200 500 eV
%endblock ProjectedDensityOfStates
NetCharge 0.00

%block BandLines
1  1.000  1.000 1.000  L
20 0.00   0.00   0.00  \Gamma
25 2.00   0.000  0.00  X
30 2.00   2.00   2.00  \Gamma
%endblock BandLines


LongOutput .true.
WriteCoorXmol .true.
LatticeConstant 1 Ang
%block LatticeVectors
  15.52679 0.0 0.0
  0.0 19.93218 0.0
  0.0 0.0 19.967
%endblock LatticeVectors


 

#UseSaveData .true.  
%block kgrid_Monkhorst_Pack
1 0 0 0.0 
 0 1 0 0.0 
 0 0 1 0.0 

%endblock kgrid_Monkhorst_Pack
WriteMDXmol .true.
AtomicCoordinatesFormat Ang
%block AtomicCoordinatesAndAtomicSpecies
1.49501  -0.18499 2.25393  1 
2.96889  -0.48437 2.47367  1 
3.83812  0.74022 2.18617  1 
5.33483  0.47921 2.37725  1 
5.77309  0.20823 3.80220  1 
5.85097  -1.14237 4.18687  1 
6.17947  -1.59802 5.47766  1 
6.48596  -0.62858 6.45953  1 
6.42157  0.74008 6.06671  1 
6.07357  1.17966 4.76308  1 
5.98239  2.66897 4.50066  1 
6.99797  3.24627 3.51958  1 
6.83513  -1.03668 7.76235  1 
7.13714  -0.11586 8.69964  2 
7.48284  -0.55791 9.92609  1 
7.84840  0.19552 11.06714  1 
8.12112  -0.69507 12.08263  1 
7.92961  -1.96095 11.58999  2 
8.06065  -2.81399 12.11605  3 
7.53683  -1.90133 10.27352  1 
7.21764  -2.88845 9.32678  1 
7.25006  -4.26192 9.63184  1 
6.92228  -5.19221 8.64631  1 
6.56343  -4.76754 7.36143  1 
6.22095  -5.69112 6.36666  1 
5.84492  -5.21805 5.12189  1 
5.47173  -6.17263 4.00281  1 
4.42287  -5.65913 2.98154  1 
4.89314  -4.45589 2.16513  1 
4.05175  -6.76360 1.98865  1 
5.86722  -3.89892 4.84109  2 
6.19247  -2.97466 5.77651  1 
6.53830  -3.38282 7.05919  1 
6.86332  -2.42114 8.04595  1 
0.90692  -1.10340 2.34517  3 
1.31744  0.23736 1.26004  3 
1.13011  0.52690 3.00131  3 
3.27117  -1.31097 1.82003  3 
3.10286  -0.81784 3.50755  3 
3.51365  1.58647 2.80132  3 
3.68337  1.03533 1.13935  3 
5.88366  1.31948 1.95942  3 
5.63713  -0.36338 1.73966  3 
5.62807  -1.88035 3.42433  3 
6.64171  1.49404 6.82657  3 
6.11423  3.20985 5.44694  3 
4.96418  2.90583 4.17240  3 
8.02092  3.12199 3.88530  3 
6.80779  4.31614 3.38163  3 
6.95771  2.79949 2.52710  3 
7.90532  1.27284 11.12869  3 
8.43371  -0.53897 13.10635  3 
7.52153  -4.61775 10.62062  3 
6.94539  -6.25142 8.89383  3 
6.24088  -6.75780 6.56575  3 
5.06500  -7.08525 4.46108  3 
6.39225  -6.46579 3.48299  3 
3.51488  -5.37030 3.52702  3 
5.88133  -4.62227 1.72577  3 
4.93188  -3.56895 2.78266  3 
4.18775  -4.20683 1.36683  3 
4.93485  -7.11604 1.44439  3 
3.33372  -6.38913 1.24924  3 
3.59220  -7.61604 2.49566  3 
 %endblock AtomicCoordinatesAndAtomicSpecies


