NumberOfAtoms 178
SpinPolarized yes
#FixSpin .true.
#TotalSpin 
NumberOfSpecies 4

 
MD.TypeOfRun  nose
MD.FinalTimeStep 10
MD.LengthTimeStep 1.0  fs
MD.InitialTemperature 300 K 
MD.TargetTemperature  300  K


%block ChemicalSpeciesLabel
1  6  C
2  7  N
3  8  O
4  1  H
%endblock ChemicalSpeciesLabel

PAO.BasisSize dzp 
 PAO.EnergyShift 0.02 Ry 
 
MeshCutoff          100 Ry
MaxSCFIterations    100  
DM.NumberPulay       3  
DM.Tolerance         1e-3
WriteDenchar	.true.

%block ProjectedDensityOfStates
-10.0 10.0 0.200 500 eV
%endblock ProjectedDensityOfStates
NetCharge 0.00

%block BandLines
1  1.000  1.000 1.000  L
20 0.00   0.00   0.00  \Gamma
25 2.00   0.000  0.00  X
30 2.00   2.00   2.00  \Gamma
%endblock BandLines


LongOutput .true.
WriteCoorXmol .true.
LatticeConstant 1 Ang
%block LatticeVectors
  27.860523 0.0 0.0
  0.0 28.086015 0.0
  0.0 0.0 36.32509
%endblock LatticeVectors


 

#UseSaveData .true.  
%block kgrid_Monkhorst_Pack
1 0 0 0.0 
 0 1 0 0.0 
 0 0 1 0.0 

%endblock kgrid_Monkhorst_Pack
WriteMDXmol .true.
AtomicCoordinatesFormat Ang
%block AtomicCoordinatesAndAtomicSpecies
13.493237  16.567370 10.302069  1 
12.102287  16.287892 10.244979  1 
11.189256  17.351013 10.482139  1 
11.620251  18.640386 10.799381  1 
12.990954  18.849747 10.957358  1 
13.972194  17.848151 10.699773  1 
14.430346  15.552813 9.966352  1 
13.931188  14.256547 9.702735  1 
12.621545  13.979926 9.701085  2 
11.712710  14.963283 9.934129  1 
15.385139  18.084751 10.816935  1 
16.308239  17.084931 10.402043  1 
15.816461  15.821254 9.935592  1 
16.668158  14.780409 9.477389  1 
16.207230  13.482227 9.253451  1 
14.849199  13.219806 9.484919  1 
17.208963  12.372961 8.932353  1 
16.694039  10.958049 9.288328  1 
15.530380  10.952423 10.290552  1 
14.398565  11.782491 9.650737  1 
15.929181  19.285728 11.362929  1 
17.301732  19.520099 11.540923  1 
18.178483  18.545900 11.094738  1 
17.694812  17.367635 10.528828  1 
10.266689  14.501122 9.805057  1 
9.844759  13.419508 10.828344  1 
9.957676  13.934275 12.263545  1 
8.402509  12.947247 10.591976  1 
10.630432  19.790329 10.932682  1 
10.424620  20.579780 9.617283  1 
9.426202  21.764720 9.717885  1 
9.875556  22.843160 10.706138  1 
9.178428  22.415941 8.346736  1 
15.957182  11.443378 11.698836  1 
14.824695  11.424158 12.735018  1 
15.265500  11.947292 14.106290  1 
16.383069  11.125985 14.728803  1 
17.646265  12.439911 7.449173  1 
18.777515  11.477779 7.096630  1 
19.520467  18.732114 11.254767  3 
17.772959  20.776986 12.236400  1 
17.975334  21.956899 11.284252  1 
18.441155  23.207965 12.019740  1 
10.119338  17.184749 10.420750  4 
13.299332  19.844837 11.267073  4 
17.732177  14.945059 9.359385  4 
18.092335  12.552612 9.561786  4 
17.526925  10.342549 9.652316  4 
16.338894  10.458720 8.375561  4 
15.185394  9.915295 10.394482  4 
13.515058  11.713362 10.292691  4 
14.118813  11.372027 8.674327  4 
15.261779  20.068045 11.724485  4 
18.430583  16.632381 10.218434  4 
10.151378  14.096071 8.789793  4 
9.562968  15.334242 9.858320  4 
10.499554  12.545441 10.719092  4 
9.304969  14.799896 12.420738  4 
10.983177  14.228889 12.502165  4 
9.663923  13.156358 12.976378  4 
7.685638  13.767183 10.713559  4 
8.132359  12.166745 11.314140  4 
8.273762  12.525795 9.590120  4 
10.979230  20.454970 11.731905  4 
9.665787  19.392044 11.269040  4 
10.052025  19.883733 8.853903  4 
11.391558  20.947642 9.249936  4 
8.461780  21.374386 10.065245  4 
10.879435  23.212138 10.471705  4 
9.875056  22.461864 11.730778  4 
9.191670  23.700448 10.684460  4 
10.106618  22.772531 7.887045  4 
8.505551  23.278226 8.440116  4 
8.702833  21.711513 7.656567  4 
16.363739  12.459898 11.664807  4 
16.780333  10.807083 12.042067  4 
14.432051  10.405963 12.837062  4 
13.993580  12.054908 12.399691  4 
14.401177  11.939469 14.781603  4 
15.586725  12.992262 14.018883  4 
16.104576  10.069260 14.787762  4 
16.598335  11.482233 15.740430  4 
17.308270  11.208669 14.151020  4 
17.972073  13.455562 7.192506  4 
16.785694  12.222943 6.802946  4 
19.702500  11.756275 7.610978  4 
18.971223  11.503852 6.018677  4 
18.536646  10.443513 7.358879  4 
19.985489  17.918435 10.997088  4 
18.699127  20.571213 12.787342  4 
17.036671  21.046629 13.005283  4 
17.036526  22.182548 10.765061  4 
18.712864  21.700390 10.514883  4 
17.737175  23.491387 12.809086  4 
18.519860  24.048720 11.322447  4 
19.425117  23.056956 12.475737  4 
0.991655  28.865198 26.794678  1 
0.980276  29.674106 27.382510  1 
1.828367  30.001310 27.799248  1 
2.687841  29.519613 27.628159  1 
3.535937  29.846824 28.044903  1 
4.395412  29.365127 27.873814  1 
5.243502  29.692331 28.290551  1 
6.102977  29.210634 28.119462  1 
6.951072  29.537845 28.536206  1 
7.810547  29.056148 28.365117  1 
8.658638  29.383353 28.781854  1 
9.518112  28.901656 28.610766  1 
10.366208  29.228867 29.027509  1 
11.225683  28.747170 28.856420  1 
12.073773  29.074374 29.273158  1 
12.933248  28.592677 29.102069  1 
13.781343  28.919888 29.518812  1 
14.640818  28.438191 29.347723  1 
15.488909  28.765396 29.764461  1 
16.348383  28.283699 29.593372  1 
17.196479  28.610910 30.010115  1 
18.055954  28.129213 29.839026  1 
1.583471  21.810633 8.395877  1 
2.323874  20.988343 7.400070  1 
2.359450  19.647865 7.324224  1 
1.658333  18.728484 8.300760  1 
3.161701  18.940565 6.270027  1 
3.031667  19.404692 4.811794  1 
3.728262  18.467189 3.805848  1 
3.071091  17.083527 3.521267  1 
3.974611  16.299832 2.564736  1 
2.750070  16.249091 4.775874  1 
2.250079  14.811186 4.539491  1 
1.993500  14.154320 5.903974  1 
1.450124  12.713437 5.854580  1 
2.452793  11.756576 5.202837  1 
0.963227  12.176577 7.230731  1 
1.996563  12.022131 8.367528  1 
2.549539  13.337871 8.917425  1 
3.697157  13.223471 9.931248  1 
4.870588  12.406726 9.382434  1 
4.183988  14.638758 10.274546  1 
1.190208  22.708498 7.911680  4 
2.263906  22.113645 9.196050  4 
0.737496  21.278013 8.829731  4 
2.897412  21.565576 6.668798  4 
1.520627  19.185878 9.283825  4 
2.235497  17.813370 8.469276  4 
0.674773  18.441303 7.907765  4 
2.825885  17.920262 6.343811  4 
4.218327  18.903627 6.562704  4 
3.504202  20.392301 4.718537  4 
1.981651  19.535070 4.526411  4 
4.776428  18.339992 4.103414  4 
3.761925  19.005022 2.845127  4 
2.124825  17.277309 3.000105  4 
4.902858  15.995862 3.055386  4 
4.232699  16.903015 1.685025  4 
3.468397  15.402102 2.198009  4 
1.904686  16.729625 5.279218  4 
3.617562  16.217566 5.434442  4 
3.018620  14.237744 4.008097  4 
1.339242  14.816370 3.932028  4 
1.331032  14.781457 6.504215  4 
2.984080  14.138456 6.355139  4 
0.554395  12.738296 5.214275  4 
2.663321  10.881707 5.824837  4 
3.410837  12.238638 4.987666  4 
2.049839  11.386379 4.253642  4 
0.537151  11.179342 7.051202  4 
0.124966  12.789556 7.585909  4 
2.802488  11.364063 8.032210  4 
1.502684  11.497342 9.197004  4 
1.727663  13.932953 9.330429  4 
2.971170  13.934684 8.122505  4 
3.324620  12.751518 10.848160  4 
4.708719  11.337035 9.550301  4 
5.812934  12.677769 9.872607  4 
5.005377  12.561154 8.305170  4 
4.659867  15.115146 9.402030  4 
4.920014  14.608013 11.078987  4 
3.356527  15.277898 10.592477  4 
 %endblock AtomicCoordinatesAndAtomicSpecies


