NumberOfAtoms 4805
SpinPolarized yes
#FixSpin .true.
#TotalSpin
NumberOfSpecies 4


MD.TypeOfRun  nose
MD.FinalTimeStep 100
MD.LengthTimeStep 1.0  fs
MD.InitialTemperature 300 K
MD.TargetTemperature  300  K


%block ChemicalSpeciesLabel
1 6 C
2 8 O
3 7 N
4 1 H
%endblock ChemicalSpeciesLabel
PAO.BasisSize dzp 
 PAO.EnergyShift 0.02 Ry 
MeshCutoff          100 Ry
MaxSCFIterations    100
DM.NumberPulay       3
DM.Tolerance         1e-3
WriteDenchar	.true.
%block ProjectedDensityOfStates
-10.0 10.0 0.200 500 eV
%endblock ProjectedDensityOfStates
NetCharge 0.00

%block BandLines
1  1.000  1.000 1.000  L
20 0.00   0.00   0.00  \Gamma
25 2.00   0.000  0.00  X
30 2.00   2.00   2.00  \Gamma
%endblock BandLines


LongOutput .true.
WriteCoorXmol .true.
LatticeConstant 1 Ang
%block LatticeVectors
  30 0.0 0.0
  0.0 30 0.0
0.0 0.0 30
%endblock LatticeVectors




#UseSaveData .true.
%block kgrid_Monkhorst_Pack
1 0 0 0.0 
 0 1 0 0.0 
 0 0 1 0.0

%endblock kgrid_Monkhorst_Pack
WriteMDXmol .true.
AtomicCoordinatesFormat Ang
%block AtomicCoordinatesAndAtomicSpecies
6.861152  4.616632 5.427504  1
5.523392  5.269312 5.447446  1
5.235917  6.512154 5.867685  1
6.259379  7.465235 6.446144  1
3.832192  7.045304 5.844985  1
2.999137  6.869501 4.566752  1
1.667549  7.645610 4.591506  1
1.723476  9.196408 4.452666  1
0.302556  9.751616 4.587598  1
2.680096  9.900084 5.434040  1
2.648638  11.440326 5.444274  1
3.662465  11.941229 6.483682  1
3.789445  13.472156 6.601928  1
2.479471  14.110089 7.073846  1
4.994018  13.939050 7.468007  1
5.012604  13.563757 8.965589  1
5.201842  12.073493 9.253065  1
5.061169  11.639546 10.719303  1
3.722095  12.073980 11.322094  1
5.171648  10.109393 10.785026  1
6.950370  3.988131 4.537398  4
6.972197  3.986446 6.313856  4
7.676821  5.338749 5.398880  4
4.705006  4.642196 5.081561  4
7.102196  6.946195 6.909657  4
5.820422  8.092158 7.229237  4
6.645356  8.126040 5.659591  4
3.961727  8.096878 6.036419  4
3.274691  6.674709 6.714085  4
2.753827  5.804153 4.456230  4
3.571580  7.150053 3.675363  4
1.105262  7.360983 5.489391  4
1.070164  7.273456 3.744148  4
2.070586  9.416512 3.434996  4
-0.069899  9.644365 5.609631  4
-0.388858  9.230097 3.913583  4
0.270999  10.811451 4.318499  4
3.701812  9.671654 5.113323  4
2.508580  9.536606 6.446816  4
1.647843  11.785404 5.729231  4
2.881866  11.835756 4.450342  4
4.643317  11.499978 6.294786  4
3.263791  11.550885 7.418423  4
3.992519  13.848877 5.587147  4
2.618277  14.760092 7.942657  4
1.725829  13.364889 7.344459  4
2.058353  14.728885 6.273759  4
5.017983  15.036731 7.415360  4
5.929991  13.606622 7.001077  4
4.106175  13.946267 9.442117  4
5.849753  14.100694 9.432744  4
6.162937  11.743712 8.843533  4
4.451074  11.489523 8.742003  4
5.880097  12.073185 11.305446  4
3.784487  13.098118 11.704020  4
3.429455  11.428282 12.158267  4
2.912809  12.039769 10.582905  4
4.310254  9.629764 10.292434  4
5.193703  9.769274 11.821191  4
6.078534  9.754351 10.289271  4
8.214733  3.800260 15.353028  1
8.733839  4.788352 16.338012  1
8.137154  5.189657 17.472392  1
6.773708  4.712030 17.923323  1
8.769398  6.209205 18.375720  1
10.246767  6.037310 18.758600  1
10.713433  7.015045 19.855112  1
10.212225  6.773512 21.310390  1
10.731485  7.905804 22.201324  1
8.685616  6.623176 21.452663  1
8.130232  6.544797 22.887530  1
6.602803  6.402373 22.811414  1
5.880554  6.273002 24.166206  1
6.059795  7.531018 25.021170  1
4.381583  5.876087 24.045278  1
3.417942  6.849659 23.332889  1
3.646874  6.995110 21.827640  1
2.819712  8.074318 21.114153  1
2.995250  9.452951 21.757400  1
3.270369  8.140398 19.647717  1
9.042502  3.205292 14.957965  4
7.736535  4.328952 14.524236  4
7.498527  3.107983 15.795056  4
9.704058  5.222769 16.079440  4
6.139524  4.402706 17.088628  4
6.226695  5.505471 18.443108  4
6.880568  3.865717 18.613717  4
8.168548  6.158771 19.267724  4
8.594922  7.218938 17.983953  4
10.860687  6.229052 17.867704  4
10.461933  5.008232 19.067917  4
10.489160  8.040826 19.537540  4
11.812854  6.953646 19.884874  4
10.671884  5.839715 21.658698  4
10.241823  8.853770 21.963904  4
11.813912  8.038029 22.078047  4
10.556197  7.682200 23.257703  4
8.412403  5.653339 21.024042  4
8.180687  7.429898 20.922102  4
8.374521  7.467454 23.426880  4
8.574008  5.700788 23.425464  4
6.335423  5.563404 22.165586  4
6.295936  7.334359 22.339943  4
6.363828  5.439959 24.700457  4
5.107786  7.936685 25.375733  4
6.572358  8.332885 24.481893  4
6.658637  7.295262 25.907847  4
4.002618  5.746339 25.068899  4
4.302674  4.885233 23.579919  4
3.454369  7.820572 23.833896  4
2.396255  6.472295 23.478165  4
3.510659  6.021727 21.343754  4
4.667882  7.281663 21.624447  4
1.759858  7.794546 21.140351  4
2.304555  9.577993 22.597593  4
2.792724  10.258775 21.042290  4
4.014196  9.598871 22.135514  4
4.303540  8.515894 19.568650  4
2.627889  8.812675 19.077570  4
3.237588  7.154852 19.176659  4
10.864038  3.215321 11.100587  1
9.691057  2.442592 10.607642  1
8.441525  2.467271 11.099536  1
8.024264  3.285008 12.302719  1
7.347743  1.622853 10.511481  1
7.160661  1.618566 8.987097  1
5.879371  0.894356 8.528950  1
4.512163  1.595169 8.787763  1
3.388574  0.661086 8.328944  1
4.283530  2.051360 10.241376  1
2.885215  2.601974 10.580459  1
2.862995  2.993623 12.065462  1
1.540782  3.601821 12.571123  1
0.386211  2.600702 12.469039  1
1.635383  4.217830 13.996137  1
1.957586  3.282847 15.181858  1
3.375479  2.709330 15.182063  1
3.681119  1.649208 16.250088  1
2.694673  0.478977 16.198213  1
5.103805  1.120948 16.015992  1
11.481843  3.525991 10.253791  4
11.465335  2.583688 11.759803  4
10.572766  4.117012 11.638827  4
9.901878  1.787391 9.757248  4
8.852800  3.474482 12.989899  4
7.256328  2.768017 12.887479  4
7.611630  4.248729 11.978246  4
6.456357  2.013049 10.972366  4
7.423112  0.594661 10.886479  4
8.012451  1.092339 8.534443  4
7.173114  2.636137 8.580443  4
5.874928  -0.120604 8.945142  4
5.965321  0.761284 7.438864  4
4.482195  2.488359 8.150663  4
3.305939  -0.211064 8.982628  4
3.564891  0.307466 7.305130  4
2.426344  1.181430 8.324908  4
4.941413  2.907957 10.421309  4
4.519363  1.239103 10.928305  4
2.132208  1.824336 10.406879  4
2.647405  3.462582 9.946847  4
3.692213  3.668226 12.288539  4
3.024675  2.042231 12.569212  4
1.306903  4.443916 11.900963  4
-0.150697  2.481373 13.414603  4
0.721645  1.606530 12.159787  4
-0.342024  2.947956 11.727772  4
0.660099  4.677503 14.210079  4
2.351447  5.049548 13.987544  4
1.209301  2.487060 15.224273  4
1.834466  3.863613 16.106469  4
4.099278  3.530010 15.234715  4
3.579395  2.199605 14.252301  4
3.641014  2.113188 17.242743  4
1.795576  0.705528 16.780380  4
3.133847  -0.435512 16.613649  4
2.382371  0.255169 15.171134  4
5.165190  0.557211 15.070939  4
5.403078  0.450680 16.822825  4
5.827901  1.937789 15.963780  4
0.800501  6.637806 17.380132  1
0.914543  7.135665 15.981876  1
2.039518  7.271631 15.260875  1
3.423755  6.966448 15.791161  1
2.014257  7.801208 13.855841  1
0.992907  7.218015 12.868169  1
1.212191  7.681820 11.414594  1
2.432415  7.101348 10.639038  1
2.494924  7.762461 9.259001  1
3.783517  7.230300 11.367920  1
5.038220  6.818532 10.574442  1
6.269519  7.023941 11.469331  1
7.619013  6.624447 10.842345  1
7.945662  7.483135 9.616926  1
8.800976  6.602409 11.853066  1
9.214827  7.926942 12.530032  1
8.193759  8.490035 13.519825  1
8.493553  9.884780 14.087945  1
8.706873  10.922821 12.982424  1
7.308724  10.316606 14.964074  1
-0.109870  6.041578 17.485016  4
0.743753  7.487381 18.065760  4
1.639324  6.003817 17.666527  4
-0.035762  7.420739 15.520838  4
3.490951  7.073548 16.876795  4
4.169499  7.649567 15.371445  4
3.712712  5.942501 15.522190  4
3.007399  7.596071 13.494147  4
1.947042  8.896119 13.867422  4
-0.010038  7.551029 13.169105  4
0.980622  6.122871 12.906666  4
1.227503  8.778385 11.388376  4
0.311545  7.390022 10.851500  4
2.238081  6.032007 10.486307  4
2.775520  8.816067 9.336177  4
1.524665  7.701845 8.749833  4
3.223283  7.257701 8.617619  4
3.771498  6.523232 12.203895  4
3.914594  8.248754 11.732364  4
5.135302  7.452861 9.685582  4
4.962082  5.775750 10.249675  4
6.133222  6.505499 12.420696  4
6.268460  8.099154 11.639531  4
7.507941  5.584886 10.496057  4
8.936642  7.942268 9.678228  4
7.223379  8.291129 9.468659  4
7.934750  6.861909 8.714514  4
9.681436  6.236722 11.305973  4
8.606571  5.847614 12.625768  4
9.464262  8.660721 11.759087  4
10.145728  7.741055 13.083404  4
8.036982  7.769031 14.329608  4
7.231151  8.610223 13.045698  4
9.390909  9.834732 14.716036  4
9.746953  10.915034 12.640678  4
8.483916  11.936686 13.334730  4
8.066286  10.729592 12.113618  4
6.404776  10.477501 14.354418  4
7.532203  11.251226 15.480163  4
7.072725  9.559067 15.715545  4
12.320272  0.693983 18.304737  1
13.148791  1.929813 18.352392  1
13.749488  2.459878 19.430396  1
13.640527  1.883934 20.825697  1
14.551238  3.726531 19.340971  1
15.589061  3.862390 18.217036  1
16.491997  5.103107 18.363351  1
17.572462  5.091710 19.485780  1
18.284205  6.447746 19.494026  1
17.043170  4.744346 20.890259  1
18.040604  4.878340 22.056712  1
17.321994  4.493775 23.358567  1
18.188420  4.536796 24.631869  1
18.684240  5.955566 24.926742  1
17.508413  3.901263 25.877970  1
16.218366  4.550935 26.423543  1
14.996452  4.417963 25.513276  1
13.740443  5.190225 25.942231  1
14.022958  6.681712 26.144372  1
12.671819  5.022017 24.852441  1
12.505561  0.163046 17.367168  4
11.261753  0.963100 18.351616  4
12.549876  0.006635 19.118631  4
13.255845  2.443835 17.392588  4
12.717705  1.317845 20.975802  4
13.638707  2.674849 21.582928  4
14.493011  1.223105 21.027899  4
15.056388  3.769483 20.290820  4
13.882706  4.596315 19.346027  4
15.055153  3.958293 17.261471  4
16.210249  2.963174 18.136348  4
15.860463  5.996066 18.448007  4
17.029120  5.216278 17.408324  4
18.313363  4.329634 19.212123  4
17.621120  7.241692 19.847219  4
18.633862  6.714238 18.488515  4
19.165760  6.421332 20.141191  4
16.797305  3.677344 20.891069  4
16.157838  5.339357 21.112514  4
18.380093  5.918017 22.132133  4
18.914045  4.239523 21.890351  4
16.859845  3.509722 23.256032  4
16.545070  5.252008 23.439337  4
19.073770  3.913809 24.429431  4
18.455908  6.276340 25.947316  4
18.251867  6.698141 24.249863  4
19.772951  5.999844 24.812126  4
18.246357  3.928065 26.692199  4
17.324084  2.835829 25.689686  4
16.419064  5.597954 26.665363  4
15.976721  4.061089 27.376964  4
14.765998  3.356954 25.367247  4
15.211092  4.808029 24.529591  4
13.355045  4.764586 26.876335  4
14.398994  6.870139 27.155169  4
13.116343  7.283840 26.013067  4
14.769735  7.054526 25.433142  4
12.975797  5.525356 23.920272  4
11.724396  5.458085 25.171877  4
12.502091  3.967533 24.621083  4
10.349151  3.006228 27.178683  1
11.577988  3.173722 28.002027  1
12.087474  4.324988 28.469905  1
11.491608  5.687453 28.188691  1
13.349372  4.353665 29.283539  1
13.494316  3.366615 30.451225  1
14.726020  3.641155 31.336445  1
14.689918  4.886380 32.272123  1
16.040394  5.002443 32.985021  1
14.325564  6.210404 31.573853  1
14.434789  7.491501 32.422559  1
14.036166  8.690059 31.548673  1
14.053804  10.059831 32.253837  1
15.464324  10.435072 32.717869  1
13.404795  11.203813 31.423674  1
14.055757  11.598514 30.080393  1
13.945389  10.544373 28.977693  1
14.720413  10.829402 27.683070  1
16.206596  11.087800 27.947079  1
14.576360  9.615190 26.754182  1
9.830900  2.089948 27.473826  4
10.625339  2.928195 26.123830  4
9.648068  3.831119 27.303689  4
12.105460  2.242261 28.227981  4
10.930167  5.715265 27.251355  4
12.271137  6.451160 28.099038  4
10.821568  5.981470 29.006560  4
13.374428  5.358472 29.669505  4
14.223891  4.291001 28.624166  4
13.608392  2.354816 30.038177  4
12.591846  3.347996 31.072655  4
15.622251  3.662355 30.704229  4
14.849453  2.760466 31.986471  4
13.926563  4.692967 33.036625  4
16.833855  5.284760 32.288248  4
16.319263  4.051250 33.455971  4
15.997830  5.751558 33.781059  4
13.260511  6.164546 31.323848  4
14.923709  6.332609 30.671336  4
15.470694  7.623976 32.756059  4
13.792099  7.422633 33.306227  4
13.057188  8.516624 31.097037  4
14.798821  8.687598 30.771883  4
13.427392  9.956857 33.153805  4
15.771520  11.425193 32.368739  4
16.220079  9.722358 32.375226  4
15.502274  10.454471 33.812662  4
13.414009  12.102093 32.057122  4
12.343675  10.977800 31.257779  4
15.097546  11.879360 30.255916  4
13.553545  12.507644 29.721763  4
12.888405  10.354753 28.760895  4
14.348486  9.600354 29.312655  4
14.283748  11.702881 27.184464  4
16.377150  12.139671 28.198273  4
16.817286  10.856638 27.066526  4
16.584455  10.478649 28.776941  4
15.091287  8.734946 27.172168  4
15.014593  9.823793 25.777329  4
13.526724  9.348377 26.608084  4
21.445964  13.205841 29.061489  1
21.968744  13.455455 29.876598  1
22.955282  13.294711 29.906508  1
23.419049  12.884354 29.121315  1
24.405595  12.723611 29.151231  1
24.869362  12.313255 28.366038  1
25.855900  12.152511 28.395949  1
26.319667  11.742154 27.610756  1
27.306214  11.581411 27.640671  1
27.769980  11.171055 26.855478  1
28.756518  11.010311 26.885389  1
29.220285  10.599954 26.100196  1
30.206832  10.439211 26.130112  1
30.670598  10.028855 25.344919  1
31.657136  9.868111 25.374829  1
32.120903  9.457754 24.589636  1
33.107450  9.297011 24.619552  1
33.571217  8.886655 23.834359  1
34.557755  8.725911 23.864270  1
35.021521  8.315554 23.079077  1
36.008068  8.154811 23.108992  1
36.471835  7.744455 22.323799  1
23.255817  8.801403 30.342962  1
23.683881  9.097512 31.196829  1
24.645309  8.886729 31.373509  1
25.178683  8.379838 30.696329  1
26.140120  8.169055 30.873016  1
26.673493  7.662163 30.195835  1
27.634922  7.451380 30.372516  1
28.168295  6.944489 29.695336  1
29.129732  6.733706 29.872022  1
29.663106  6.226814 29.194842  1
30.624534  6.016031 29.371523  1
31.157908  5.509139 28.694342  1
32.119345  5.298357 28.871029  1
32.652718  4.791465 28.193848  1
33.614147  4.580682 28.370529  1
34.147520  4.073790 27.693349  1
35.108957  3.863008 27.870035  1
35.642330  3.356116 27.192855  1
36.603759  3.145333 27.369536  1
37.137133  2.638441 26.692355  1
38.098569  2.427659 26.869042  1
38.631943  1.920767 26.191862  1
40.011700  6.484039 18.028882  1
40.002328  5.503623 17.832168  1
39.997901  5.183778 16.884714  1
40.002845  5.844351 16.133963  1
39.998418  5.524509 15.186498  1
40.003362  6.185080 14.435758  1
39.998935  5.865237 13.488293  1
40.003879  6.525808 12.737552  1
39.999451  6.205966 11.790088  1
40.004395  6.866537 11.039347  1
39.999968  6.546694 10.091883  1
40.004912  7.207265 9.341142  1
40.000485  6.887423 8.393678  1
40.005429  7.547994 7.642937  1
40.001002  7.228151 6.695472  1
40.005946  7.888722 5.944732  1
40.001518  7.568880 4.997267  1
37.938152  6.031553 20.019155  1
37.655413  5.173462 19.590509  1
37.635789  5.095140 18.593779  1
37.898906  5.874914 18.025686  1
37.879283  5.796597 17.028946  1
38.142399  6.576367 16.460862  1
38.122776  6.498050 15.464123  1
38.385892  7.277820 14.896039  1
38.366269  7.199502 13.899299  1
38.629385  7.979272 13.331215  1
38.609762  7.900955 12.334476  1
38.872878  8.680725 11.766392  1
38.853256  8.602407 10.769652  1
39.116371  9.382177 10.201568  1
39.096749  9.303860 9.204829  1
39.359864  10.083630 8.636745  1
39.340242  10.005313 7.640005  1
6.873144  0.768771 3.928369  1
6.590425  1.701570 3.704859  1
7.267713  2.368382 3.393999  1
8.227728  2.102398 3.306647  1
8.905025  2.769213 2.995784  1
9.865031  2.503226 2.908434  1
10.542328  3.170041 2.597572  1
11.502334  2.904054 2.510222  1
12.179631  3.570869 2.199360  1
13.139637  3.304882 2.112010  1
13.816934  3.971697 1.801147  1
14.776940  3.705710 1.713797  1
15.454237  4.372525 1.402935  1
16.414243  4.106539 1.315585  1
17.091540  4.773353 1.004723  1
18.051546  4.507367 0.917373  1
18.728843  5.174181 0.606510  1
8.111168  -0.181720 6.010969  1
7.307716  0.412126 5.968401  1
7.421392  1.401078 5.873302  1
8.338526  1.796191 5.820770  1
8.452207  2.785150 5.725670  1
9.369335  3.180255 5.673139  1
9.483016  4.169215 5.578039  1
10.400144  4.564320 5.525508  1
10.513825  5.553279 5.430409  1
11.430953  5.948385 5.377877  1
11.544634  6.937344 5.282778  1
12.461762  7.332449 5.230246  1
12.575444  8.321409 5.135147  1
13.492571  8.716514 5.082615  1
13.606253  9.705473 4.987516  1
14.523380  10.100579 4.934985  1
14.637062  11.089538 4.839885  1
26.759133  4.718075 36.104042  1
25.808954  5.878646 36.211538  1
24.433803  5.631955 36.190762  1
23.567660  6.702074 36.299790  1
23.966992  7.982377 36.432044  3
25.287126  8.231197 36.459141  1
25.703654  9.546385 36.617785  1
27.055734  9.892425 36.667939  1
28.021940  8.905369 36.541344  1
27.631272  7.577126 36.375674  1
26.263642  7.214748 36.343763  1
26.224511  3.763140 36.057725  4
27.414358  4.680657 36.980333  4
27.363807  4.803066 35.195471  4
24.037925  4.626368 36.096550  4
22.491660  6.553635 36.288938  4
24.950396  10.324968 36.713047  4
27.345012  10.930773 36.806220  4
29.076984  9.164014 36.575634  4
28.407775  6.823212 36.277090  4
24.512673  5.434594 38.923258  1
24.278017  6.916952 38.829052  1
22.965539  7.396235 38.832741  1
22.758509  8.759490 38.755771  1
23.751189  9.667954 38.682201  3
25.017655  9.219110 38.683761  1
26.044482  10.152490 38.630741  1
27.388668  9.773721 38.639571  1
27.722277  8.428236 38.686838  1
26.710777  7.469689 38.735356  1
25.346330  7.845051 38.747004  1
23.571489  4.883888 39.026995  4
25.123308  5.201327 39.801504  4
25.011873  5.069283 38.020095  4
22.115515  6.725521 38.899100  4
21.754161  9.173266 38.756721  4
25.788672  11.208655 38.589027  4
28.166106  10.532465 38.610106  4
28.765143  8.122283 38.690801  4
26.998725  6.422338 38.770041  4
27.475950  29.829265 4.255719  1
26.849818  30.633311 3.161326  1
26.872036  30.123715 1.900265  3
26.316584  30.820352 0.885023  1
25.702439  32.054725 1.016190  1
25.665931  32.602335 2.306112  1
25.143646  33.815651 2.858614  1
24.464263  34.927753 2.319377  1
24.082480  35.977064 3.163666  1
24.367204  35.931276 4.526308  1
25.038872  34.840447 5.085305  1
25.413142  33.800773 4.225937  1
26.073139  32.625501 4.493269  3
26.392271  32.348177 5.409628  4
26.240668  31.878895 3.349675  1
27.887184  28.892136 3.868095  4
26.729849  29.587977 5.018993  4
28.288885  30.395622 4.720357  4
26.380242  30.337668 -0.086565  4
25.274763  32.564367 0.162196  4
24.237584  34.972995 1.258410  4
23.558689  36.835314 2.749913  4
24.062451  36.756324 5.166307  4
25.259128  34.808849 6.147310  4
25.370819  28.311384 8.081752  1
25.222108  28.700832 6.645632  1
25.630557  27.815323 5.697212  3
25.512383  28.130837 4.389147  1
24.992895  29.320543 3.906667  1
24.564333  30.250796 4.863784  1
23.985812  31.558614 4.792363  1
23.623382  32.415665 3.732545  1
23.063844  33.666435 4.019123  1
22.863165  34.069126 5.337276  1
23.213376  33.238280 6.405250  1
23.771790  31.991548 6.099721  1
24.203442  30.986962 6.932075  3
24.168011  31.028714 7.939780  4
24.688754  29.919633 6.211954  1
25.811682  27.314056 8.174224  4
24.392508  28.301954 8.571950  4
26.020364  29.024044 8.599169  4
25.863342  27.364913 3.702701  4
24.924331  29.515008 2.843921  4
23.775739  32.111037 2.701491  4
22.783810  34.328638 3.203519  4
22.427051  35.044785 5.539934  4
23.055759  33.555939 7.430734  4
26.237467  36.543953 3.096769  1
27.700085  36.720930 2.821888  1
28.563142  35.636503 2.835101  1
29.891291  35.813076 2.434171  1
30.760229  34.709259 2.380457  1
32.066068  34.840867 1.881936  1
32.938890  33.758044 1.742488  1
34.187238  33.840533 1.224468  3
34.596402  35.063291 0.836465  1
33.826712  36.208702 0.954232  1
32.532140  36.101768 1.480696  1
31.677848  37.215834 1.588887  1
30.340243  37.093701 2.047690  1
29.403649  38.150620 2.126551  1
29.713899  39.563998 1.728773  1
28.107309  37.963375 2.491773  3
26.005894  35.529282 3.435251  4
25.672043  36.732857 2.177972  4
25.907936  37.247151 3.866865  4
28.193616  34.653841 3.112098  4
30.406852  33.729537 2.689832  4
32.641959  32.754975 2.036256  4
35.593778  35.104021 0.406918  4
34.224743  37.161664 0.620269  4
32.060283  38.182693 1.278705  4
30.781366  39.788748 1.696583  4
29.269697  40.256105 2.453075  4
29.281975  39.770381 0.743965  4
19.967465  32.219732 18.686641  1
19.840025  30.749718 18.423610  1
20.486659  30.148479 17.353482  1
20.354112  28.759294 17.121672  1
20.983686  28.060681 16.047930  1
21.789780  28.723345 15.137171  2
20.841719  26.675759 15.831515  1
21.465068  26.066636 14.794863  3
21.306420  24.741446 14.619767  1
20.535796  23.950214 15.442822  1
19.882929  24.553025 16.517636  1
19.038449  23.694635 17.422309  1
20.034145  25.949862 16.724809  1
19.407539  26.634370 17.789234  1
19.546656  28.023376 18.013368  1
18.924728  28.719314 19.078978  1
18.038709  28.072971 20.107977  1
19.069372  30.053849 19.277511  3
20.612733  32.711077 17.952170  4
20.395838  32.382728 19.680488  4
18.980612  32.690981 18.643851  4
21.089391  30.780342 16.712048  4
21.847076  29.664175 15.334492  4
21.835503  24.321703 13.769348  4
20.450311  22.887470 15.245173  4
19.042757  22.646574 17.105463  4
17.998274  24.036333 17.408409  4
19.423696  23.728264 18.446703  4
18.789580  26.052319 18.463807  4
17.905951  26.998065 19.988014  4
17.044582  28.530526 20.070175  4
18.460164  28.238344 21.105089  4
12.724373  24.698263 35.137876  1
11.769084  23.500340 34.999574  1
11.496399  23.255311 33.511923  1
12.373802  22.255547 35.680293  1
12.680531  22.339246 37.113830  3
11.933059  22.510341 38.234574  1
12.468737  22.229761 39.311538  2
10.450051  22.925438 38.171863  1
10.123796  23.976194 39.268854  1
10.928203  25.263245 39.040886  1
8.631583  24.338229 39.325500  1
9.694708  21.689552 38.371517  3
9.321544  20.769032 37.433106  1
9.024063  19.639669 37.813656  2
9.364752  21.134429 35.930073  1
8.094969  20.582871 35.221892  1
6.817953  21.225380 35.774118  1
8.137478  20.796182 33.703238  1
10.556081  20.470095 35.401746  3
11.857134  20.839726 35.346893  1
12.671937  19.942688 35.096962  2
12.298771  25.592571 34.670120  4
13.687188  24.496826 34.654046  4
12.916459  24.935239 36.189169  4
10.824776  23.799958 35.448386  4
12.399208  22.923803 32.988663  4
11.141474  24.171271 33.026809  4
10.722721  22.495596 33.372639  4
13.387501  22.214167 35.245454  4
13.585007  21.947815 37.362030  4
10.202613  23.353223 37.211827  4
10.399817  23.577116 40.253520  4
10.645554  25.747336 38.099561  4
12.003541  25.065084 39.011970  4
10.751557  25.977000 39.853049  4
8.242129  24.615327 38.339942  4
8.465219  25.189502 39.997445  4
8.033751  23.505819 39.709824  4
9.769784  21.266582 39.293040  4
9.430145  22.205783 35.767856  4
8.024276  19.500167 35.394994  4
6.809578  22.305850 35.597203  4
6.711869  21.053347 36.849293  4
5.933226  20.796785 35.289767  4
8.269792  21.853701 33.452814  4
7.204163  20.456728 33.239084  4
8.951760  20.228253 33.242191  4
10.478109  19.460329 35.316228  4
38.782826  12.663434 37.388694  1
37.293197  12.997031 37.197795  1
36.538611  12.640269 38.482639  1
37.123389  14.485707 36.832311  1
37.785472  14.972599 35.615471  3
37.656050  14.698627 34.291747  1
38.156001  15.506574 33.502572  2
36.830107  13.501172 33.782364  1
37.557975  12.786894 32.610215  1
38.896213  12.201544 33.081407  1
36.723876  11.656121 31.988434  1
35.552230  14.068156 33.354136  3
34.443982  14.317255 34.113714  1
33.613848  15.114968 33.685573  2
34.301665  13.668934 35.511540  1
32.841429  13.172874 35.710845  1
32.475027  12.079732 34.701226  1
32.597743  12.637409 37.127712  1
34.598665  14.735398 36.467668  3
35.759917  15.191208 36.993128  1
35.711822  16.291139 37.557827  2
38.916976  11.604597 37.634838  4
39.220691  13.251722 38.203477  4
39.356187  12.865959 36.478467  4
36.921657  12.334620 36.419277  4
36.839768  13.283800 39.315668  4
36.732961  11.601235 38.770606  4
35.458561  12.740971 38.346641  4
37.713000  14.992816 37.615625  4
38.258025  15.864275 35.735904  4
36.663777  12.777441 34.566228  4
37.769873  13.511487 31.813295  4
38.745244  11.418807 33.832978  4
39.540371  12.971119 33.516457  4
39.441258  11.759909 32.239894  4
36.352166  10.959552 32.747649  4
37.325893  11.077840 31.276382  4
35.866194  12.051371 31.435106  4
35.586538  14.678085 32.541392  4
34.985990  12.838120 35.652379  4
32.148997  14.012204 35.558294  4
33.107814  11.195233 34.827826  4
32.579229  12.430930 33.670375  4
31.431905  11.770637 34.833083  4
33.297874  11.833138 37.375770  4
31.581572  12.236598 37.219858  4
32.701417  13.428147 37.877477  4
33.877498  15.446868 36.549816  4
4.319248  19.911422 33.559881  1
3.357254  20.609172 34.536833  1
2.841366  21.897073 33.886700  1
2.202060  19.660215 34.915751  1
2.545057  18.385341 35.558531  3
3.126868  18.044563 36.737268  1
2.992678  16.874292 37.108734  2
3.826857  19.084862 37.633562  1
5.146827  18.510927 38.218539  1
6.141720  18.190294 37.094741  1
5.825922  19.466171 39.212176  1
2.863392  19.395888 38.688463  3
1.854668  20.317342 38.663533  1
0.934937  20.193413 39.468213  2
1.846166  21.427025 37.585097  1
1.434317  22.780095 38.231368  1
2.447068  23.230309 39.289756  1
1.278064  23.897200 37.191521  1
0.836727  21.014854 36.609964  3
0.893608  20.207481 35.524935  1
-0.191184  19.828226 35.066200  2
5.152173  20.571371 33.294507  4
3.808665  19.631407 32.631132  4
4.744504  19.003689 33.999710  4
3.948939  20.906275 35.399712  4
2.211260  21.682221 33.017464  4
3.675564  22.523991 33.552968  4
2.255686  22.489194 34.594877  4
1.843622  19.314833 33.930553  4
2.035258  17.589149 35.185596  4
4.065327  19.981532 37.081286  4
4.935085  17.577794 38.756541  4
6.445534  19.097970 36.561686  4
5.714606  17.494948 36.366372  4
7.044044  17.720474 37.501361  4
5.946236  20.471147 38.793449  4
6.824242  19.098972 39.481203  4
5.253747  19.547231 40.141724  4
2.657883  18.642179 39.339181  4
2.811262  21.538874 37.100877  4
0.462102  22.663233 38.729715  4
3.433377  23.402225 38.846558  4
2.554178  22.488997 40.087148  4
2.120171  24.164877 39.759596  4
2.195271  24.030509 36.608832  4
1.050899  24.851530 37.680802  4
0.457081  23.686842 36.498775  4
-0.124220  21.098971 36.930161  4
39.227265  17.447678 38.048445  1
37.780726  17.960741 37.943495  1
36.969604  17.393973 39.113263  1
37.762117  19.502847 37.931839  1
38.492312  20.189057 36.858504  3
38.363886  20.240796 35.507621  1
38.954952  21.155463 34.924910  2
37.437170  19.279500 34.737778  1
38.116540  18.785941 33.430577  1
39.382584  17.979534 33.750547  1
37.190379  17.915851 32.566779  1
36.228566  20.052323 34.455219  3
35.134284  20.227642 35.254614  1
34.393424  21.179915 35.024236  2
34.902188  19.292516 36.465466  1
33.397331  18.909669 36.548661  1
32.948043  18.119284 35.314978  1
33.074814  18.089387 37.804343  1
35.280924  20.076178 37.641123  3
36.469761  20.282772 38.254609  1
36.516177  21.222687 39.058008  2
39.254087  16.352701 38.043264  4
39.703101  17.787014 38.975867  4
39.835666  17.796766 37.208054  4
37.363043  17.534790 37.034085  4
37.314331  17.796018 40.071537  4
37.057395  16.302649 39.153192  4
35.907186  17.628722 39.006941  4
38.381802  19.755924 38.809519  4
39.045814  20.978373 37.180240  4
37.186313  18.414859 35.333900  4
38.413092  19.649946 32.821833  4
39.141996  17.063678 34.301593  4
40.088788  18.561458 34.349793  4
39.899539  17.691892 32.828441  4
36.738240  17.103330 33.145712  4
37.748294  17.460548 31.738960  4
36.385965  18.509920 32.121791  4
36.337689  20.826369 33.805073  4
35.500556  18.388548 36.409033  4
32.791949  19.825371 36.595685  4
33.490252  17.171666 35.232433  4
33.106265  18.686093 34.392729  4
31.877607  17.892044 35.374621  4
33.689299  17.184920 37.858318  4
32.023187  17.779827 37.804113  4
33.238831  18.672487 38.716075  4
34.629931  20.816942 37.887079  4
37.951800  4.968575 38.105000  1
36.611320  5.703792 37.933853  1
35.486346  4.809882 38.465698  1
36.652114  7.062284 38.662829  1
37.676825  8.030298 38.251693  3
37.932162  8.710375 37.104369  1
38.694743  9.678472 37.186739  2
37.222984  8.371138 35.778647  1
38.221756  8.420856 34.589571  1
39.318521  7.360884 34.760176  1
37.542590  8.204057 33.228428  1
36.169703  9.375249 35.636601  3
34.902938  9.345939 36.148138  1
34.290424  10.406385 36.243281  2
34.308938  8.015458 36.669172  1
32.827839  7.890443 36.212224  1
32.712319  7.832865 34.685174  1
32.138689  6.655044 36.805926  1
34.372692  8.105131 38.127812  3
35.349904  7.811451 39.017297  1
35.204170  8.261777 40.160544  2
37.939647  4.007845 37.579102  4
38.161998  4.765994 39.161626  4
38.782558  5.555692 37.700765  4
36.448794  5.812776 36.863979  4
35.564373  4.669794 39.548773  4
35.520252  3.821813 37.993618  4
34.504873  5.238762 38.246796  4
37.011130  6.783075 39.668578  4
38.146630  8.484006 39.030365  4
36.784943  7.384691 35.809242  4
38.707145  9.404951 34.558402  4
38.901066  6.348380 34.730292  4
39.850028  7.481803 35.708508  4
40.061435  7.442723 33.959151  4
36.918053  7.304215 33.223733  4
38.292493  8.089529 32.435724  4
36.916066  9.058848 32.954904  4
36.483538  10.330273 35.484350  4
34.866428  7.151062 36.322166  4
32.266663  8.770542 36.555325  4
33.221629  6.951367 34.282247  4
33.141710  8.721960 34.214022  4
31.660272  7.783202 34.382256  4
32.680838  5.737404 36.555770  4
31.118432  6.557406 36.416968  4
32.062782  6.724388 37.895693  4
33.705984  8.749224 38.544543  4
6.913016  25.006920 34.235217  1
5.591885  25.508690 34.843134  1
4.477149  24.519919 34.486486  1
5.737646  25.676339 36.369311  1
6.764242  26.603366 36.862098  3
6.958463  27.943520 36.760497  1
7.760671  28.453113 37.549358  2
6.140169  28.816132 35.788646  1
7.048586  29.864997 35.089660  1
8.114687  29.170439 34.231432  1
6.262126  30.837153 34.196703  1
5.117445  29.457374 36.613668  3
3.892174  28.967712 36.968864  1
3.328482  29.463109 37.941287  2
3.289457  27.762929 36.207469  1
1.774758  28.008949 35.955980  1
1.543544  29.230641 35.060128  1
1.086195  26.794078 35.320693  1
3.465179  26.613653 37.095174  3
4.494394  25.754225 37.280853  1