NumberOfAtoms 519
SpinPolarized yes
#FixSpin .true.
#TotalSpin 
NumberOfSpecies 4

 
MD.TypeOfRun  nose
MD.FinalTimeStep 21
MD.LengthTimeStep 0.5  fs
MD.InitialTemperature 300 K 
MD.TargetTemperature  300  K


%block ChemicalSpeciesLabel
1  6  C
2  1  H
3  7  N
4  8  O
%endblock ChemicalSpeciesLabel

PAO.BasisSize szp 
 PAO.EnergyShift 0.02 Ry 
 
MeshCutoff          100 Ry
MaxSCFIterations    100  
DM.NumberPulay       3  
DM.Tolerance         1e-3
WriteDenchar	.true.

%block ProjectedDensityOfStates
-10.0 10.0 0.200 500 eV
%endblock ProjectedDensityOfStates
NetCharge 0.00

%block BandLines
1  1.000  1.000 1.000  L
20 0.00   0.00   0.00  \Gamma
25 2.00   0.000  0.00  X
30 2.00   2.00   2.00  \Gamma
%endblock BandLines


LongOutput .true.
WriteCoorXmol .true.
LatticeConstant 1 Ang
%block LatticeVectors
  47.993079 0.0 0.0
  0.0 46.82356 0.0
  0.0 0.0 47.875879
%endblock LatticeVectors


 

#UseSaveData .true.  
%block kgrid_Monkhorst_Pack
1 0 0 0.0 
 0 1 0 0.0 
 0 0 1 0.0 

%endblock kgrid_Monkhorst_Pack
WriteMDXmol .true.
AtomicCoordinatesFormat Ang
%block AtomicCoordinatesAndAtomicSpecies
39.058938  12.069706 1.209966  1 
37.868802  11.374035 1.771758  1 
37.834626  10.153597 2.331455  1 
39.038667  9.243915 2.446409  1 
36.555804  9.561718 2.850592  1 
35.659235  10.423213 3.752121  1 
34.498464  9.637078 4.392968  1 
34.839032  8.632650 5.534248  1 
33.553122  7.914916 5.954690  1 
35.945176  7.616056 5.193134  1 
36.203336  6.503581 6.227151  1 
37.329715  5.601575 5.701058  1 
37.745533  4.447773 6.633624  1 
36.596129  3.459399 6.851994  1 
39.046558  3.718841 6.191955  1 
39.048211  2.970362 4.841504  1 
38.964982  3.869890 3.607298  1 
38.798183  3.158970 2.256475  1 
37.586771  2.222190 2.244891  1 
38.622209  4.225269 1.165635  1 
38.996778  13.139148 1.428353  2 
39.081642  11.934398 0.125411  2 
39.993930  11.704843 1.634527  2 
36.934789  11.939182 1.700121  2 
39.785352  9.435118 1.671496  2 
38.753379  8.192046 2.340905  2 
39.513172  9.369571 3.427920  2 
36.886916  8.700974 3.406218  2 
35.970281  9.144852 2.021816  2 
35.214798  11.220034 3.139823  2 
36.241749  10.921996 4.534980  2 
33.925388  9.138421 3.601575  2 
33.811896  10.383516 4.822897  2 
35.184493  9.224250 6.391714  2 
33.204089  7.235629 5.172692  2 
32.752481  8.634884 6.166706  2 
33.711123  7.335833 6.869217  2 
36.893795  8.162419 5.169593  2 
35.745035  7.158546 4.224694  2 
35.295833  5.901599 6.353354  2 
36.470720  6.935387 7.197054  2 
38.203065  6.203649 5.441784  2 
36.898755  5.179748 4.794755  2 
37.979062  4.902277 7.609241  2 
36.885389  2.425875 6.640432  2 
35.726382  3.686005 6.228521  2 
36.270011  3.494097 7.897380  2 
39.273921  2.974307 6.967987  2 
39.886271  4.425222 6.214015  2 
38.247230  2.226432 4.843172  2 
39.987374  2.403724 4.776351  2 
39.831910  4.539354 3.586589  2 
38.100221  4.513959 3.664057  2 
39.704371  2.582182 2.036500  2 
37.853668  1.240525 2.649512  2 
37.208500  2.067013 1.227747  2 
36.759417  2.619359 2.845104  2 
37.669073  4.764372 1.290500  2 
38.617300  3.766369 0.176094  2 
39.428096  4.962740 1.196502  2 
2.933657  40.010101 39.122922  1 
3.047445  39.090856 38.746039  1 
3.962896  38.700750 38.647258  1 
4.764568  39.229889 38.925361  1 
5.680028  38.839783 38.826580  1 
6.481691  39.368922 39.104682  1 
7.397151  38.978816 39.005902  1 
8.198814  39.507954 39.284004  1 
9.114274  39.117848 39.185223  1 
9.915936  39.646987 39.463325  1 
10.831397  39.256881 39.364545  1 
11.633059  39.786020 39.642647  1 
12.548520  39.395914 39.543867  1 
13.350182  39.925052 39.821968  1 
14.265643  39.534946 39.723188  1 
15.067305  40.064085 40.001290  1 
15.982765  39.673979 39.902510  1 
32.328313  34.982192 12.130589  1 
30.895314  35.014274 12.585349  1 
30.203606  33.808834 12.729510  1 
28.890915  33.845997 13.156953  1 
28.228162  34.981517 13.452731  3 
28.885002  36.146524 13.323426  1 
28.213504  37.317773 13.648463  1 
28.824082  38.570233 13.554025  1 
30.134537  38.663111 13.109120  1 
30.830385  37.503035 12.771014  1 
30.226312  36.228130 12.882639  1 
32.685210  33.955270 11.996710  2 
32.974740  35.455414 12.876778  2 
32.435492  35.497433 11.170696  2 
30.674436  32.854463 12.519046  2 
28.317997  32.931764 13.282936  2 
27.184363  37.251261 13.993588  2 
28.271962  39.464858 13.829307  2 
30.618251  39.633030 13.028694  2 
31.855212  37.603247 12.423524  2 
28.081197  9.229624 10.321316  1 
27.224994  8.884363 11.551939  1 
27.713287  7.554725 12.136008  1 
27.299309  10.023449 12.589017  1 
26.853651  11.359292 12.173051  3 
25.663542  11.881428 11.779261  1 
25.562444  13.112354 11.790532  4 
24.452468  10.990194 11.440804  1 
23.712269  11.519221 10.181377  1 
24.629286  11.463032 8.951962  1 
22.429028  10.734349 9.867935  1 
23.596258  11.036707 12.625100  3 
23.665573  10.258529 13.746197  1 
23.122493  10.665472 14.770030  4 
24.485856  8.946541 13.728505  1 
23.698898  7.828654 14.469526  1 
22.377120  7.507521 13.763611  1 
24.513413  6.535498 14.603446  1 
25.719983  9.248897 14.453243  3 
26.900053  9.783364 14.060616  1 
27.650614  10.177145 14.962083  4 
28.024778  8.433545 9.571120  2 
29.135665  9.355343 10.593290  2 
27.741045  10.155410 9.846457  2 
26.212368  8.717925 11.191650  2 
28.724675  7.644682 12.545602  2 
27.728301  6.775328 11.366201  2 
27.051466  7.207679 12.933940  2 
28.386776  10.181946 12.692338  2 
27.475450  12.107665 12.466652  2 
24.756008  9.971727 11.249803  2 
23.423488  12.566662 10.337875  2 
24.897931  10.430441 8.703141  2 
25.553431  12.025288 9.114077  2 
24.131720  11.901163 8.079765  2 
22.610103  9.654596 9.834329  2 
22.022200  11.031320 8.893178  2 
21.650598  10.929427 10.612250  2 
23.163875  11.934699 12.826098  2 
24.714785  8.616904 12.719882  2 
23.458989  8.167114 15.486923  2 
22.550615  7.126318 12.751994  2 
21.733190  8.389031 13.691893  2 
21.820483  6.745607 14.320992  2 
24.842950  6.168942 13.625894  2 
23.912413  5.746969 15.071170  2 
25.397220  6.682766 15.232223  2 
25.609396  9.352026 15.458308  2 
1.967197  26.381387 4.558265  1 
2.692211  25.334803 4.972779  1 
3.616253  25.399868 6.181465  1 
3.350327  26.191795 7.460509  1 
3.348894  27.628766 7.307988  1 
4.620596  28.072710 6.673253  1 
4.428332  29.620653 6.394421  1 
2.931264  29.958988 5.404566  1 
1.485116  29.919343 5.945572  1 
1.017039  30.499270 7.317037  1 
1.704236  30.165899 8.678358  1 
3.029189  30.855886 9.136680  1 
4.261058  30.635068 8.333289  1 
4.218280  31.455817 6.584375  1 
4.990602  30.899284 4.954309  1 
4.578548  30.960498 3.441590  1 
5.534240  30.179360 2.513329  1 
2.736010  24.221932 4.114044  4 
3.106987  22.920379 4.613117  1 
1.847139  22.089881 5.029872  1 
0.871224  21.502420 4.000307  1 
4.003845  22.120322 3.626120  1 
5.377984  22.559801 3.340937  4 
6.367967  22.480622 4.293316  1 
6.146047  22.425710 5.493995  4 
7.785206  22.570110 3.666697  1 
8.880476  21.457710 3.800846  1 
9.535622  21.110603 5.160518  1 
10.611446  19.988321 5.074490  1 
11.294147  19.585136 6.408751  1 
10.445848  18.997900 7.543314  1 
9.259997  19.798731 8.166397  1 
9.052566  21.132096 8.923304  1 
9.193432  22.487551 8.909588  1 
9.869404  23.628039 8.130920  1 
9.036918  24.778949 7.435843  1 
9.944819  25.923742 6.847871  1 
9.176594  27.087360 6.192610  1 
10.077760  28.153738 5.527568  1 
9.355702  29.305928 4.804551  1 
8.578929  28.888453 3.556573  1 
7.404996  27.949263 3.761554  1 
1.962409  27.312843 5.081760  2 
1.399591  26.394963 3.637524  2 
4.587629  25.714713 5.784426  2 
3.739566  24.422829 6.614726  2 
4.189341  26.019885 8.148379  2 
2.425960  25.913838 7.961001  2 
3.173840  28.060524 8.286804  2 
2.495511  27.953758 6.746719  2 
4.797367  27.693971 5.663682  2 
5.523388  27.968707 7.301206  2 
5.643752  29.593145 6.262345  2 
5.307750  30.284335 6.946865  2 
2.964617  29.417822 4.465138  2 
2.849776  31.084084 5.025613  2 
1.234786  28.883738 5.893035  2 
0.829587  30.359147 5.148353  2 
0.000851  30.083978 7.406711  2 
0.879667  31.587911 7.264055  2 
1.697932  29.079663 8.792104  2 
1.010402  30.479793 9.469784  2 
3.306822  30.472232 10.137999  2 
2.968049  31.920428 9.092815  2 
4.296043  29.532089 8.435211  2 
5.257550  30.770872 8.760799  2 
4.088788  32.567345 6.615951  2 
3.068772  31.212918 6.794869  2 
4.951216  29.702670 4.729063  2 
6.086613  30.854420 5.034407  2 
4.561203  32.007940 3.280821  2 
3.635323  30.487741 3.122334  2 
6.507853  30.654843 2.521205  2 
5.130258  30.152277 1.499539  2 
5.619394  29.120590 2.764526  2 
3.701451  23.020253 5.511282  2 
1.251030  22.684483 5.731670  2 
2.223532  21.225386 5.590677  2 
0.475307  22.221507 3.279082  2 
0.002076  21.094743 4.541988  2 
1.307167  20.656527 3.456725  2 
3.505902  22.081468 2.650686  2 
4.083848  21.090822 3.990944  2 
8.205701  23.538937 3.958408  2 
7.612868  22.647726 2.582310  2 
9.708059  21.788929 3.156300  2 
8.499865  20.531648 3.357529  2 
8.742472  20.785834 5.820701  2 
10.010283  21.994379 5.595336  2 
11.416701  20.321012 4.399137  2 
10.194123  19.091534 4.596418  2 
11.874360  20.419814 6.806979  2 
12.041916  18.810853 6.147554  2 
11.118288  18.622762 8.333582  2 
10.009118  18.059751 7.146421  2 
8.881653  19.054735 8.898525  2 
8.462935  19.775614 7.424675  2 
8.431318  20.854927 9.794142  2 
8.697415  22.944632 9.779502  2 
10.591239  23.223087 7.423555  2 
10.454707  24.158084 8.899536  2 
8.329883  25.238105 8.141187  2 
8.438150  24.350336 6.622927  2 
10.595034  25.483774 6.081144  2 
10.580443  26.354182 7.624648  2 
8.496334  27.583212 6.893241  2 
8.569410  26.586983 5.461458  2 
10.765356  27.684974 4.812794  2 
10.695819  28.604928 6.312409  2 
10.114569  30.037622 4.474057  2 
8.712985  29.860711 5.499056  2 
9.260052  28.444417 2.826373  2 
8.208802  29.804756 3.088742  2 
7.640545  26.951651 4.090428  2 
6.943631  27.727424 2.798648  2 
6.681563  28.366001 4.465068  2 
4.097628  4.058933 8.489379  1 
3.101639  4.050084 8.578463  1 
2.679716  4.128555 9.481692  1 
3.253781  4.215874 10.295837  1 
2.831858  4.294345 11.199066  1 
3.405914  4.381663 12.013207  1 
2.983990  4.460134 12.916436  1 
3.558056  4.547453 13.730582  1 
3.136132  4.625924 14.633811  1 
3.710197  4.713243 15.447956  1 
3.288274  4.791714 16.351185  1 
3.862330  4.879032 17.165326  1 
3.440407  4.957503 18.068555  1 
4.014472  5.044822 18.882700  1 
3.592548  5.123293 19.785930  1 
4.166605  5.210611 20.600071  1 
3.744681  5.289082 21.503300  1 
4.318746  5.376401 22.317445  1 
3.896823  5.454872 23.220674  1 
4.470879  5.542190 24.034815  1 
4.048956  5.620661 24.938044  1 
4.623021  5.707980 25.752189  1 
4.201097  5.786451 26.655419  4 
5.619001  5.716828 25.663101  1 
6.193066  5.804148 26.477246  1 
5.771142  5.882618 27.380476  1 
6.345199  5.969937 28.194617  1 
5.923275  6.048408 29.097846  1 
6.497340  6.135727 29.911991  1 
6.075417  6.214197 30.815220  1 
6.649473  6.301516 31.629361  1 
6.227550  6.379987 32.532590  1 
6.801615  6.467306 33.346735  4 
8.130650  13.628895 37.105692  1 
9.338085  14.246171 36.421128  1 
9.395770  14.014057 34.896917  1 
10.597789  14.637047 34.184028  1 
11.548331  15.363322 34.932183  1 
12.685524  15.861852 34.295194  1 
13.758666  16.535980 34.838503  3 
13.857795  16.745766 35.815836  2 
14.695212  16.752730 33.865808  1 
16.035547  17.287968 34.022194  1 
16.440442  18.048101 35.094630  1 
17.685182  18.544194 35.231571  3 
18.615582  18.252475 34.296259  1 
19.915487  18.767406 34.441334  1 
20.212836  19.791237 35.539651  1 
21.312196  19.296351 36.490647  1 
20.531519  21.195975 34.963491  1 
19.400483  21.847869 34.143516  1 
18.122808  22.117494 34.927774  1 
20.929908  18.380752 33.542142  1 
20.650432  17.544960 32.469583  1 
19.347737  17.092738 32.278213  1 
18.313076  17.443182 33.176269  1 
16.973689  17.009618 33.004029  1 
16.521929  16.182854 31.796608  1 
15.020452  16.319646 31.443475  1 
14.197036  16.260530 32.679756  1 
12.919394  15.705848 32.937199  1 
11.949553  15.047340 32.168430  1 
10.801387  14.497918 32.790254  1 
9.853563  13.743627 31.885167  1 
10.225108  12.257977 31.758210  1 
9.265714  11.445043 30.858276  1 
7.843881  11.478196 31.424408  1 
9.339092  11.923754 29.394562  1 
8.441220  11.156570 28.435523  1 
8.236522  13.731627 38.192415  2 
8.039305  12.564066 36.876222  2 
7.207214  14.137127 36.813440  2 
10.237631  13.825100 36.887537  2 
9.329351  15.322054 36.636023  2 
8.477431  14.410018 34.447996  2 
9.417966  12.931145 34.720923  2 
11.438094  15.519979 35.996397  2 
15.764768  18.311157 35.903215  2 
19.335262  19.908787 36.184103  2 
22.287629  19.200207 36.003717  2 
21.047210  18.316317 36.905439  2 
21.426567  19.986775 37.333997  2 
21.422911  21.144417 34.324408  2 
20.787999  21.871658 35.789418  2 
19.163535  21.231980 33.269042  2 
19.763435  22.806396 33.749986  2 
17.731662  21.215612 35.400848  2 
17.342209  22.495598 34.258416  2 
18.287234  22.867851 35.707242  2 
21.948534  18.741859 33.670834  2 
21.431388  17.255031 31.778198  2 
19.162153  16.446160 31.428401  2 
16.750688  15.131133 32.013731  2 
17.081103  16.471400 30.899981  2 
14.735089  15.539377 30.731104  2 
14.850234  17.289427 30.957529  2 
12.103850  14.936423 31.098011  2 
9.875887  14.217098 30.895481  2 
8.830432  13.879130 32.242743  2 
10.247464  11.799214 32.754929  2 
11.247127  12.163987 31.365621  2 
9.605072  10.399823 30.883677  2 
7.427718  12.489565 31.411546  2 
7.836112  11.119687 32.459588  2 
7.165599  10.839297 30.853285  2 
10.375106  11.831562 29.044200  2 
9.073958  12.983038 29.322610  2 
8.629047  10.080421 28.488126  2 
8.628974  11.487303 27.408685  2 
7.383532  11.340706 28.646329  2 
15.415997  26.638197 16.233878  1 
16.207914  25.919001 15.298568  1 
17.023740  26.741591 14.306178  1 
17.110461  28.285844 14.531630  1 
15.901253  28.851006 15.268965  1 
15.223963  28.037977 16.166463  1 
14.793645  25.919043 17.271381  1 
14.869093  24.526204 17.336015  1 
15.414149  23.775602 16.269055  1 
16.165363  24.477337 15.272165  1 
14.386505  23.853270 18.494033  1 
14.358908  22.459423 18.541168  1 
14.573431  21.811953 17.300253  1 
15.165109  22.448456 16.244637  3 
13.885795  24.597703 19.589623  1 
13.634107  23.997756 20.846191  1 
13.969854  22.626261 21.009262  1 
14.172914  21.862897 19.842177  1 
14.041660  26.614081 18.255901  1 
13.608650  25.946665 19.423187  1 
14.316791  28.692152 17.039295  1 
13.723809  27.951232 18.079757  1 
15.701372  30.199648 15.190248  3 
14.800567  30.823639 15.996141  1 
14.086268  30.082003 16.926383  1 
14.251733  21.758148 22.134959  1 
14.349913  20.475451 21.632547  1 
14.194374  20.556151 20.271521  3 
14.522880  21.938593 23.517634  1 
14.895426  20.847064 24.361079  1 
14.923795  19.543785 23.804394  1 
14.613353  19.363402 22.434479  1 
12.886606  26.647190 20.425161  1 
12.620123  26.033437 21.659610  1 
13.044098  24.734631 21.885961  1 
12.806892  28.550649 18.975267  1 
12.427905  27.919345 20.159653  1 
13.156216  30.738552 17.914316  1 
12.158411  29.826338 18.578519  1 
16.953786  23.701718 14.170295  1 
17.513330  22.330755 14.595868  1 
16.173552  23.605107 12.829174  1 
16.864516  22.843365 11.676307  1 
18.212120  23.411344 11.249047  1 
14.068073  20.407765 17.026649  1 
13.103259  20.325256 15.824564  1 
12.582832  18.896569 15.533897  1 
11.818465  18.304059 16.723909  1 
11.203307  16.910862 16.508433  1 
10.420370  16.430698 17.764576  1 
9.215323  17.346964 18.071204  1 
8.412240  16.926992 19.293600  1 
9.985555  14.967142 17.613909  1 
15.349124  18.270396 24.525208  1 
14.187919  17.488572 25.154124  1 
14.631538  16.152287 25.739871  1 
15.381578  21.212019 25.767833  1 
14.567709  20.670793 26.953967  1 
15.036742  21.150659 28.353481  1 
14.179802  20.494202 29.454903  1 
16.535897  20.910402 28.622366  1 
16.973636  19.457887 28.489203  1 
14.640766  32.322174 15.732221  1 
14.373569  33.262529 16.926515  1 
14.090902  34.733900 16.596051  1 
13.702761  35.468131 17.890697  1 
15.272879  35.398272 15.915568  1 
17.462195  28.974754 13.182829  1 
17.630220  30.492927 13.216687  1 
16.625467  26.546153 13.305920  2 
18.059767  26.372878 14.324589  2 
17.958544  28.461683 15.211587  2 
14.278867  19.750144 19.670621  2 
14.553197  22.953482 23.908841  2 
14.657615  18.375581 21.983506  2 
12.091937  26.572566 22.432104  2 
12.830546  24.273622 22.848278  2 
11.765075  28.429966 20.848694  2 
13.777239  31.211365 18.688660  2 
12.527044  31.460354 17.397460  2 
11.351012  29.597809 17.870305  2 
11.706792  30.345601 19.431465  2 
17.857626  24.289979 13.974339  2 
16.734707  21.570101 14.700216  2 
18.068567  22.404312 15.536394  2 
18.214882  21.942260 13.849562  2 
15.942030  24.613474 12.467178  2 
15.204696  23.123025 13.009843  2 
16.198581  22.851337 10.803194  2 
16.990209  21.787651 11.941328  2 
18.115191  24.439785 10.888388  2 
18.633801  22.810735 10.434036  2 
18.934036  23.396619 12.069337  2 
13.504366  20.053582 17.888027  2 
14.922722  19.739015 16.884653  2 
13.596730  20.708531 14.923854  2 
12.242472  20.984851 16.006394  2 
13.423434  18.248238 15.264281  2 
11.920542  18.944429 14.659122  2 
11.040795  19.022305 16.996475  2 
12.499449  18.215674 17.575575  2 
12.015898  16.200495 16.306338  2 
10.547788  16.902045 15.628921  2 
11.106758  16.474150 18.620762  2 
8.551076  17.396031 17.200155  2 
9.562410  18.367149 18.263258  2 
7.922280  15.961797 19.142248  2 
7.628033  17.663193 19.496515  2 
9.054754  16.862110 20.177371  2 
9.226311  14.851092 16.833675  2 
9.566771  14.582372 18.550974  2 
10.836586  14.324550 17.368181  2 
16.130134  18.486260 25.260168  2 
15.836965  17.613306 23.787448  2 
13.392937  17.309875 24.420242  2 
13.731410  18.071264 25.955865  2 
15.032578  15.482701 24.971559  2 
13.777814  15.649369 26.207788  2 
15.397390  16.294069 26.508984  2 
15.407323  22.307293 25.864399  2 
16.429010  20.898424 25.842425  2 
14.623144  19.583938 26.949017  2 
13.510718  20.937633 26.827450  2 
14.870810  22.233945 28.426610  2 
13.994027  19.433498 29.252513  2 
13.205697  20.988803 29.530440  2 
14.658238  20.564510 30.439157  2 
16.777123  21.260967 29.634300  2 
17.138345  21.530756 27.947970  2 
16.213262  18.760979 28.851473  2 
17.887551  19.285552 29.065933  2 
17.190109  19.211973 27.445448  2 
13.843460  32.439004 14.988024  2 
15.565923  32.663406 15.249069  2 
15.188455  33.167980 17.654195  2 
13.469184  32.988590 17.451617  2 
13.224719  34.788018 15.923030  2 
14.410149  35.259208 18.701032  2 
12.710467  35.145489 18.231476  2 
13.660140  36.551064 17.742460  2 
16.206706  35.174700 16.439658  2 
15.144157  36.484049 15.881316  2 
15.360989  35.042313 14.884438  2 
16.705157  28.729590 12.428409  2 
18.410732  28.551743 12.825421  2 
16.660497  31.000668 13.218921  2 
18.142494  30.845269 12.316665  2 
18.205356  30.817142 14.089624  2 
 %endblock AtomicCoordinatesAndAtomicSpecies

