NumberOfAtoms 2389
SpinPolarized yes
#FixSpin .true.
#TotalSpin 
NumberOfSpecies 4

 


%block ChemicalSpeciesLabel
1  6  c
2  1  h
3  7  n
4  8  o
%endblock ChemicalSpeciesLabel

PAO.BasisSize szp 
 PAO.EnergyShift 0.02 Ry 
 
MeshCutoff          100 Ry
MaxSCFIterations    100  
DM.NumberPulay       3  
DM.Tolerance         1e-3
WriteDenchar	.true.

%block ProjectedDensityOfStates
-10.0 10.0 0.200 500 eV
%endblock ProjectedDensityOfStates
NetCharge 0.00

%block BandLines
1  1.000  1.000 1.000  L
20 0.00   0.00   0.00  \Gamma
25 2.00   0.000  0.00  X
30 2.00   2.00   2.00  \Gamma
%endblock BandLines


LongOutput .true.
WriteCoorXmol .true.
LatticeConstant 1 Ang
%block LatticeVectors
  58.020995 0.0 0.0
  0.0 57.977528 0.0
  0.0 0.0 58.019888
%endblock LatticeVectors


 

#UseSaveData .true.  
%block kgrid_Monkhorst_Pack
1 0 0 0.0 
 0 1 0 0.0 
 0 0 1 0.0 

%endblock kgrid_Monkhorst_Pack
WriteMDXmol .true.
AtomicCoordinatesFormat Ang
%block AtomicCoordinatesAndAtomicSpecies
8.950803  24.798011 2.724902  1 
7.990577  23.926547 3.456001  1 
8.284115  22.993761 4.376676  1 
9.693321  22.641452 4.801490  1 
7.212537  22.170916 5.032312  1 
5.974246  22.886769 5.591735  1 
5.060735  21.968392 6.427296  1 
5.558636  21.529988 7.837005  1 
4.534405  20.563780 8.439392  1 
6.970631  20.914353 7.862241  1 
7.440673  20.319456 9.203359  1 
8.858329  19.758499 9.017088  1 
9.502692  19.152429 10.278563  1 
8.721003  17.934194 10.779125  1 
11.016297  18.831461 10.120261  1 
11.438518  17.770077 9.081446  1 
11.227902  18.178285 7.622560  1 
11.480216  17.091040 6.567957  1 
10.653639  15.829394 6.832963  1 
11.109605  17.657054 5.189490  1 
8.514855  25.791159 2.587535  2 
9.157782  24.367263 1.741693  2 
9.889817  24.926541 3.262788  2 
6.941014  24.080052 3.188125  2 
10.430989  22.846116 4.021396  2 
9.783547  21.575077 5.033120  2 
9.968389  23.207942 5.700230  2 
7.731089  21.685002 5.841154  2 
6.908716  21.351369 4.369350  2 
5.377879  23.259422 4.747440  2 
6.254491  23.764613 6.184886  2 
4.790398  21.091469 5.826213  2 
4.118149  22.517222 6.581247  2 
5.576922  22.429029 8.466270  2 
4.531563  19.607679 7.909640  2 
3.522115  20.985045 8.393173  2 
4.752083  20.372883 9.494303  2 
7.683290  21.726292 7.683867  2 
7.059072  20.152976 7.087817  2 
6.771271  19.502643 9.497615  2 
7.423383  21.082019 9.988765  2 
9.513095  20.524334 8.596098  2 
8.710934  18.966048 8.285414  2 
9.445552  19.924963 11.061419  2 
9.356922  17.054723 10.916013  2 
7.914177  17.647247 10.098520  2 
8.267963  18.157457 11.751389  2 
11.371014  18.477152 11.098469  2 
11.568796  19.760824 9.931564  2 
10.931442  16.827894 9.305433  2 
12.511240  17.576894 9.220367  2 
11.823516  19.071824 7.405749  2 
10.200637  18.463972 7.452362  2 
12.545588  16.831801 6.562853  2 
11.171275  15.169086 7.536286  2 
10.482949  15.259983 5.911883  2 
9.671102  16.068246 7.257329  2 
10.025003  17.838380 5.115664  2 
11.384013  16.956795 4.399463  2 
11.619137  18.604769 4.998483  2 
22.858053  40.391878 33.559851  1 
23.327380  40.867680 34.890015  1 
23.734162  40.110984 35.922409  1 
23.741056  38.597642 35.908322  1 
24.173528  40.723129 37.221427  1 
25.170594  41.890713 37.184368  1 
25.707456  42.282510 38.575179  1 
26.718916  41.319269 39.265467  1 
27.044973  41.867513 40.657801  1 
26.259826  39.851147 39.350506  1 
27.151416  38.894964 40.165503  1 
26.522742  37.494021 40.130187  1 
27.309074  36.395479 40.870950  1 
27.402009  36.685708 42.371892  1 
26.785796  34.955871 40.601155  1 
25.354248  34.596479 41.054422  1 
24.238546  35.299293 40.279435  1 
22.810702  35.095858 40.806528  1 
22.681495  35.483124 42.282515  1 
21.857332  35.963115 39.971754  1 
23.204881  41.076424 32.781153  2 
21.765165  40.370016 33.545671  2 
23.237802  39.400429 33.314075  2 
23.322323  41.954786 35.012803  2 
22.997431  38.180339 35.224606  2 
23.507375  38.190077 36.897379  2 
24.731975  38.228338 35.615060  2 
24.621169  39.897228 37.747487  2 
23.298407  40.991739 37.825989  2 
24.658580  42.771303 36.772349  2 
26.010108  41.677685 36.512944  2 
24.859515  42.488776 39.239880  2 
26.223047  43.248271 38.453295  2 
27.643079  41.344612 38.673976  2 
26.185025  41.786132 41.327609  2 
27.340710  42.923026 40.605257  2 
27.882629  41.323904 41.104436  2 
26.305835  39.436254 38.338236  2 
25.242280  39.800700 39.736905  2 
27.200653  39.236083 41.206216  2 
28.167484  38.876537 39.758158  2 
26.341335  37.189564 39.097302  2 
25.570528  37.643131 40.636255  2 
28.333477  36.417202 40.467136  2 
27.067007  35.843157 42.983841  2 
26.808185  37.555820 42.666524  2 
28.442861  36.888803 42.647154  2 
27.466044  34.266740 41.121359  2 
26.896230  34.721147 39.534719  2 
25.262907  34.776026 42.128864  2 
25.223369  33.514293 40.916237  2 
24.302116  35.023685 39.221053  2 
24.370748  36.370468 40.310483  2 
22.524818  34.044740 40.681343  2 
22.964336  34.645235 42.927931  2 
21.651899  35.761013 42.536408  2 
23.323141  36.335081 42.537413  2 
22.044084  37.035250 40.145943  2 
20.819256  35.759136 40.237451  2 
21.980195  35.773406 38.902556  2 
49.009281  37.542385 23.938569  1 
48.417521  36.809494 22.785884  1 
47.656683  37.322955 21.805383  1 
47.232538  38.774190 21.738537  1 
47.110408  36.463592 20.701622  1 
48.062406  35.496261 19.982778  1 
47.440104  34.837435 18.735874  1 
47.232952  35.721132 17.469561  1 
46.531094  34.882929 16.397045  1 
46.473409  37.038473 17.716707  1 
46.103673  37.866474 16.471256  1 
45.355001  39.127008 16.929143  1 
44.938287  40.095571 15.805721  1 
43.942653  39.443406 14.841828  1 
44.417495  41.468349 16.318883  1 
43.130200  41.494941 17.171003  1 
43.264641  40.867515 18.559385  1 
41.968950  40.726472 19.371323  1 
40.889887  39.956977 18.604050  1 
42.291572  39.979960 20.673833  1 
49.999934  37.137582 24.162186  2 
48.371983  37.414355 24.817513  2 
49.130494  38.606638 23.737922  2 
48.636992  35.737884 22.766189  2 
47.191648  39.245881 22.723638  2 
46.229654  38.875681 21.310901  2 
47.928890  39.341321 21.107851  2 
46.736161  37.179703 19.990032  2 
46.217576  35.928473 21.048006  2 
48.328527  34.689426 20.679596  2 
49.000981  35.990547 19.707583  2 
46.499701  34.350172 19.021522  2 
48.114994  34.017717 18.442669  2 
48.229941  35.978726 17.089769  2 
45.496370  34.667637 16.675922  2 
47.050521  33.928806 16.241558  2 
46.527727  35.404162 15.435294  2 
47.145150  37.702979 18.270005  2 
45.569314  36.844814 18.293212  2 
45.444965  37.278441 15.821493  2 
47.002758  38.131174 15.905355  2 
45.940823  39.659518 17.681274  2 
44.456691  38.720799 17.390754  2 
45.851240  40.322143 15.232903  2 
43.039148  40.043973 14.701831  2 
43.623639  38.452632 15.178171  2 
44.404636  39.323488 13.855633  2 
44.223908  42.087708 15.431658  2 
45.220245  41.983614 16.861719  2 
42.316610  41.033018 16.605580  2 
42.843979  42.546845 17.308580  2 
44.021933  41.413239 19.132856  2 
43.629416  39.853996 18.484715  2 
41.590904  41.723677 19.626105  2 
40.325199  40.630706 17.951490  2 
40.174072  39.482000 19.285047  2 
41.321029  39.166320 17.978356  2 
42.580472  38.936165 20.469576  2 
41.422124  39.961377 21.332255  2 
43.116760  40.454643 21.210498  2 
49.703080  14.068297 -0.043199  1 
50.003717  14.425969 0.840937  1 
49.869891  13.884577 1.670982  1 
49.435430  12.985511 1.616902  1 
49.301606  12.444118 2.446958  1 
48.867145  11.545052 2.392878  1 
48.733320  11.003660 3.222924  1 
48.298859  10.104595 3.168843  1 
48.165035  9.563201 3.998899  1 
47.730574  8.664136 3.944819  1 
47.596749  8.122744 4.774865  1 
47.162288  7.223678 4.720785  1 
47.028463  6.682285 5.550840  1 
46.594003  5.783219 5.496760  1 
46.460177  5.241827 6.326806  1 
46.025717  4.342761 6.272726  1 
45.891892  3.801368 7.102782  1 
45.457431  2.902302 7.048701  1 
45.323606  2.360910 7.878747  1 
44.889145  1.461844 7.824667  1 
44.755321  0.920451 8.654723  1 
44.320860  0.021385 8.600643  1 
11.244429  49.809003 0.001411  1 
11.270641  49.603046 0.979621  1 
10.533730  49.072769 1.398858  1 
9.770598  48.748445 0.839884  1 
9.033678  48.218164 1.259120  1 
8.270555  47.893844 0.700147  1 
7.533635  47.363563 1.119383  1 
6.770513  47.039244 0.560410  1 
6.033593  46.508962 0.979646  1 
5.270470  46.184643 0.420673  1 
4.533550  45.654362 0.839909  1 
3.770427  45.330042 0.280936  1 
3.033507  44.799761 0.700172  1 
2.270384  44.475441 0.141199  1 
1.533464  43.945160 0.560436  1 
0.770341  43.620841 0.001463  1 
0.033422  43.090559 0.420699  1 
48.652171  0.109426 5.507895  1 
48.510785  0.999036 5.942181  1 
47.596235  1.402602 5.969075  1 
46.823061  0.916558 5.561680  1 
45.908501  1.320124 5.588571  1 
45.135337  0.834080 5.181179  1 
44.220777  1.237646 5.208070  1 
43.447612  0.751602 4.800677  1 
42.533052  1.155168 4.827568  1 
41.759888  0.669124 4.420176  1 
40.845328  1.072690 4.447067  1 
40.072164  0.586646 4.039674  1 
39.157604  0.990212 4.066566  1 
38.384439  0.504168 3.659173  1 
37.469880  0.907733 3.686064  1 
36.696715  0.421690 3.278672  1 
35.782155  0.825255 3.305563  1 
13.059600  23.355636 33.731772  1 
12.653418  24.179712 34.922250  1 
11.686118  23.676308 35.795887  1 
11.325522  24.434742 36.892243  1 
11.855897  25.639622 37.180513  3 
12.791292  26.131318 36.350650  1 
13.357018  27.362319 36.655566  1 
14.343294  27.941265 35.854031  1 
14.768778  27.285603 34.708199  1 
14.213515  26.050531 34.375669  1 
13.228061  25.447023 35.192618  1 
12.543891  22.389369 33.716269  2 
14.134351  23.149108 33.761112  2 
12.810332  23.878577 32.802927  2 
11.221602  22.709482 35.633795  2 
10.578400  24.079639 37.596259  2 
13.023976  27.882962 37.550373  2 
14.772998  28.900343 36.130610  2 
15.533357  27.728687 34.075516  2 
14.562884  25.558399 33.471893  2 
43.680741  7.898718 48.476552  1 
44.394051  7.154115 47.393510  1 
44.994038  7.876214 46.409110  3 
45.648245  7.239615 45.413468  1 
45.768462  5.864657 45.299041  1 
45.158935  5.096984 46.301171  1 
45.048940  3.691349 46.550702  1 
45.511159  2.536699 45.885688  1 
45.219076  1.274031 46.414831  1 
44.478701  1.149951 47.588035  1 
44.009561  2.278475 48.266167  1 
44.310927  3.532615 47.722267  1 
43.985283  4.791576 48.166453  3 
43.449299  4.979382 49.000669  2 
44.485363  5.759440 47.325946  1 
43.744347  8.979516 48.317162  2 
44.126993  7.667388 49.448571  2 
42.623960  7.615161 48.494510  2 
46.096675  7.895015 44.671592  2 
46.306949  5.413180 44.475544  2 
46.089125  2.622746 44.970465  2 
45.574450  0.382659 45.903648  2 
44.261874  0.160199 47.983704  2 
43.432755  2.177457 49.179653  2 
3.723265  7.645023 44.717722  1 
4.763645  6.934265 45.529242  1 
4.425049  5.860155 46.337119  1 
5.438325  5.130731 46.967289  1 
5.113587  3.999869 47.736734  1 
6.117614  3.190762 48.292015  1 
5.842805  2.018281 49.001617  1 
6.785847  1.191154 49.511575  3 
8.068602  1.552525 49.319096  1 
8.455008  2.705657 48.656348  1 
7.465116  3.542980 48.123882  1 
7.785146  4.707801 47.400393  1 
6.785581  5.512459 46.793764  1 
7.028660  6.659064 46.002110  1 
8.402797  7.181019 45.699733  1 
6.038321  7.345191 45.371711  3 
2.712064  7.307202 44.964918  2 
3.897170  7.446975 43.654655  2 
3.777715  8.723499 44.891070  2 
3.384807  5.566247 46.439178  2 
4.072295  3.720793 47.871911  2 
4.821029  1.689274 49.169971  2 
8.809147  0.865754 49.720179  2 
9.510141  2.932283 48.540461  2 
8.833146  4.965129 47.287409  2 
9.170275  6.828559 46.390951  2 
8.402995  8.275082 45.762702  2 
8.687988  6.893473 44.682392  2 
2.717186  43.556735 47.438790  1 
2.969535  42.101123 47.691539  1 
4.209227  41.645912 48.116678  1 
4.427932  40.267913 48.349974  1 
5.668491  39.714694 48.788502  1 
6.770522  40.521148 49.019918  4 
5.869457  38.339036 49.016922  1 
7.070194  37.871755 49.434200  3 
7.224862  36.550896 49.642448  1 
6.221179  35.626448 49.454450  1 
4.974988  36.081624 49.024721  1 
3.872259  35.077026 48.816916  1 
4.785392  37.470725 48.798018  1 
3.555036  38.010745 48.363522  1 
3.345723  39.389990 48.133743  1 
2.115412  39.942370 47.700316  1 
0.875190  39.136000 47.429677  1 
1.933761  41.269609 47.484071  3 
3.605667  44.164693 47.634302  2 
1.911115  43.911517 48.088546  2 
2.423698  43.706413 46.395119  2 
4.991666  42.381502 48.260462  2 
6.573755  41.447573 48.845568  2 
8.213185  36.248934 49.976158  2 
6.412850  34.575570 49.640764  2 
4.205275  34.058447 49.041502  2 
3.538141  35.089557 47.774264  2 
3.027289  35.298008 49.477310  2 
2.734809  37.320366 48.201319  2 
0.978464  38.064973 47.601938  2 
0.575048  39.270830 46.385259  2 
0.063720  39.491207 48.073533  2 
5.994356  17.153457 7.171677  1 
5.848223  15.881268 8.024263  1 
7.229613  15.241577 8.197643  1 
5.203811  16.222080 9.383362  1 
3.869336  16.834632 9.374838  3 
2.640709  16.424268 8.967243  1 
1.671087  17.067937 9.380826  4 
2.443729  15.150728 8.121758  1 
1.389929  15.386888 7.004774  1 
1.871468  16.467494 6.027046  1 
1.070317  14.114295 6.205192  1 
2.003500  14.124953 9.066111  3 
2.775348  13.308514 9.843865  1 
2.256454  12.779020 10.823231  4 
4.281607  13.139697 9.532137  1 
4.681524  11.644493 9.682192  1 
3.941718  10.759443 8.673274  1 
6.190984  11.426978 9.515353  1 
4.979538  13.943480 10.535412  3 
5.317302  15.253561 10.579915  1 
5.651022  15.696506 11.686024  4 
6.438244  16.921342 6.197611  2 
6.640289  17.889808 7.663853  2 
5.023041  17.623720 6.988178  2 
5.247849  15.183684 7.444738  2 
7.892117  15.875407 8.796069  2 
7.706028  15.078063 7.224719  2 
7.154432  14.267436 8.688094  2 
5.824393  17.063287 9.737807  2 
3.773410  17.614895 10.018954  2 
3.367136  14.843712 7.653833  2 
0.450305  15.734187 7.453671  2 
2.774098  16.148164 5.494491  2 
2.095076  17.405535 6.543315  2 
1.098976  16.683950 5.280950  2 
1.978999  13.625169 5.837992  2 
0.447682  14.351266 5.333398  2 
0.512124  13.392989 6.810297  2 
1.084313  14.264595 9.477619  2 
4.537029  13.481760 8.534068  2 
4.413533  11.296444 10.689293  2 
4.197754  11.032325 7.644310  2 
2.856501  10.836418 8.788295  2 
4.208014  9.706531 8.819876  2 
6.544661  11.808773 8.552175  2 
6.435003  10.359258 9.561958  2 
6.756771  11.921814 10.311082  2 
4.968626  13.555629 11.474812  2 
18.018730  33.354363 31.251780  1 
18.680428  34.534432 30.519443  1 
19.608421  33.983103 29.432076  1 
17.602871  35.466856 29.929505  1 
16.643727  36.079277 30.857460  3 
16.750102  36.958524 31.886860  1 
15.708459  37.503056 32.266321  4 
18.114002  37.352610 32.486881  1 
18.034548  37.427853 34.036702  1 
17.699429  36.051871 34.628231  1 
19.337164  37.929739 34.678793  1 
18.430905  38.654793 31.902321  3 
19.047975  38.916281 30.711493  1 
18.905850  40.031367 30.216361  4 
19.826460  37.796390 29.980538  1 
21.155927  38.369504 29.412962  1 
22.080012  38.862450 30.531717  1 
21.915216  37.342976 28.562468  1 
18.959163  37.372555 28.881495  3 
17.950377  36.472660 28.811361  1 
17.221431  36.542740 27.813978  4 
18.774772  32.692356 31.687516  2 
17.406933  32.754722 30.567810  2 
17.375027  33.701506 32.066280  2 
19.311781  35.039543 31.246888  2 
19.043566  33.476846 28.642514  2 
20.317112  33.262983 29.855720  2 
20.196068  34.782291 28.972606  2 
16.952538  34.763526 29.381075  2 
15.682221  36.050927 30.529437  2 
18.879682  36.638323 32.223403  2 
17.237565  38.123262 34.330371  2 
18.495850  35.327298 34.425659  2 
16.766163  35.654926 34.218469  2 
17.573945  36.119604 35.714474  2 
20.208655  37.369704 34.322917  2 
19.297756  37.820708 35.769853  2 
19.501654  38.991356 34.469204  2 
17.831426  39.426233 32.183833  2 
20.046065  36.955070 30.630418  2 
20.933334  39.227146 28.763261  2 
22.371139  38.041878 31.195563  2 
21.603070  39.639562 31.136261  2 
22.993770  39.296611 30.110315  2 
22.119521  36.428841 29.129198  2 
22.876269  37.752079 28.229668  2 
21.351563  37.072763 27.663890  2 
18.884820  38.037781 28.116664  2 
18.198979  31.557527 16.925575  1 
18.109591  30.029001 17.075044  1 
19.262237  29.551502 17.964371  1 
16.738231  29.630083 17.657115  1 
15.536666  30.013842 16.905392  3 
15.040202  29.691704 15.683178  1 
13.850924  29.953390 15.476622  4 
15.877971  28.933040 14.635265  1 
15.656352  29.526103 13.216434  1 
16.134747  30.983279 13.158864  1 
16.378971  28.732579 12.116833  1 
15.426851  27.544392 14.712500  3 
15.865016  26.561577 15.554705  1 
15.142029  25.584719 15.733064  4 
17.198156  26.735899 16.320760  1 
17.990137  25.397807 16.301771  1 
18.375138  24.991202 14.875241  1 
19.262532  25.463298 17.156372  1 
16.818000  27.068473 17.693571  3 
16.522184  28.242769 18.298467  1 
15.961984  28.166756 19.399123  4 
19.164062  31.851980 16.499392  2 
18.097683  32.058375 17.895405  2 
17.415400  31.939497 16.263477  2 
18.278173  29.607739 16.086591  2 
19.152949  29.915385 18.991216  2 
20.223241  29.909767 17.579136  2 
19.312493  28.459796 17.992610  2 
16.655516  30.283311 18.543024  2 
14.795100  30.394997 17.486510  2 
16.932308  28.987289 14.861816  2 
14.585243  29.514110 12.976436  2 
17.215558  31.053770 13.323806  2 
15.634909  31.600219 13.911196  2 
15.913998  31.422929 12.179969  2 
17.437089  28.578523 12.354396  2 
16.329909  29.265777 11.159156  2 
15.915287  27.753309 11.961781  2 
14.473369  27.369008 14.406140  2 
17.814784  27.524631 15.901164  2 
17.361644  24.598161 16.717429  2 
19.036933  25.733197 14.416704  2 
17.494367  24.876413 14.236558  2 
18.898534  24.028358 14.879477  2 
19.914843  26.282834 16.837910  2 
19.832364  24.530504 17.073111  2 
19.025953  25.602843 18.215957  2 
16.429583  26.295532 18.227158  2 
1.226382  23.442193 8.265236  1 
1.573369  24.734065 9.025097  1 
1.084105  24.603061 10.471113  1 
3.091221  24.999325 8.959276  1 
3.702653  25.156951 7.633598  3 
3.565874  26.059253 6.628014  1 
4.452191  26.075835 5.767959  4 
2.424676  27.095051 6.609565  1 
1.836914  27.243793 5.179065  1 
1.210231  25.922901 4.712104  1 
0.773580  28.348651 5.081151  1 
3.028853  28.343065 7.073516  3 
3.195191  28.771444 8.360390  1 
4.030207  29.645592 8.578078  4 
2.406135  28.098118 9.508655  1 
1.887827  29.184459 10.493188  1 
0.903212  30.139916 9.810418  1 
1.208764  28.574830 11.726415  1 
3.369505  27.231675 10.187572  3 
3.772347  25.960066 9.957120  1 
4.808225  25.600612 10.530527  4 
0.148253  23.250924 8.293061  2 
1.729073  22.573958 8.706994  2 
1.523158  23.506736 7.213556  2 
0.993417  25.531852 8.566716  2 
1.639459  23.830810 11.013308  2 
0.021554  24.337480 10.498338  2 
1.195015  25.546583 11.012047  2 
3.516855  24.032339 9.278896  2 
4.578631  24.653249 7.524773  2 
1.623676  26.808214 7.274408  2 
2.640251  27.501626 4.476791  2 
0.353906  25.646244 5.336999  2 
1.932918  25.102392 4.742835  2 
0.859115  26.007414 3.677776  2 
0.001516  28.240046 5.850505  2 
0.273399  28.318847 4.105045  2 
1.221060  29.342535 5.181000  2 
3.719229  28.759874 6.454327  2 
1.567300  27.512985 9.144835  2 
2.736312  29.782535 10.853170  2 
0.012287  29.607816 9.461266  2 
1.358868  30.644522 8.953330  2 
0.579065  30.919505 10.509132  2 
0.385354  27.912075 11.441253  2 
0.797554  29.361574 12.369598  2 
1.918515  28.002047 12.331672  2 
4.066587  27.721707 10.741617  2 
18.683703  16.939527 25.130861  1 
18.445198  18.165297 24.232348  1 
18.718643  17.771606 22.777103  1 
17.007501  18.691190 24.419524  1 
16.603018  19.116516 25.765484  3 
17.005153  20.101890 26.608919  1 
16.249847  20.377432 27.546530  4 
18.285098  20.922263 26.355384  1 
19.067536  21.148014 27.678542  1 
19.537969  19.809333 28.263491  1 
20.292043  22.059155 27.501391  1 
17.825873  22.186269 25.781607  3 
17.563647  22.470926 24.471100  1 
16.852303  23.439903 24.218419  4 
18.085486  21.533749 23.355809  1 
18.634180  22.383034 22.174397  1 
19.833659  23.235332 22.602626  1 
19.047162  21.516114 20.977937  1 
16.921027  20.765315 22.916172  3 
16.360074  19.620202 23.370513  1 
15.216232  19.372899 22.968626  4 
19.706888  16.565583 25.016944  2 
18.000744  16.120843 24.875904  2 
18.537956  17.185766 26.187458  2 
19.195130  18.904078 24.505707  2 
17.985979  17.043023 22.414977  2 
19.715197  17.327763 22.676236  2 
18.685870  18.644363 22.119559  2 
16.400506  17.778286 24.290897  2 
15.681217  18.787072 26.038701  2 
18.940258  20.421743 25.658147  2 
18.410426  21.625307 28.417064  2 
20.254029  19.314383 27.598200  2 
18.699620  19.126579 28.429242  2 
20.027799  19.962623 29.231389  2 
20.932890  21.724566 26.678500  2 
20.902820  22.068008 28.412832  2 
19.993939  23.094052 27.306104  2 
17.293249  22.789224 26.403300  2 
18.863859  20.865008 23.709800  2 
17.848839  23.066551 21.823323  2 
20.669350  22.607703 22.928951  2 
19.575061  23.914144 23.420667  2 
20.181587  23.853925 21.767570  2 
19.788365  20.764217 21.267479  2 
19.488618  22.133886 20.187228  2 
18.185868  21.000798 20.541148  2 
16.242448  21.292993 22.373857  2 
7.390302  28.834595 17.469184  1 
6.841509  30.089798 16.769173  1 
7.932769  31.165204 16.756621  1 
6.369439  29.740807 15.343015  1 
5.315955  28.728217 15.198270  3 
4.014514  28.653463 15.578689  1 
3.321999  27.788120 15.033593  4 
3.390404  29.666420 16.558463  1 
2.458261  28.949963 17.574198  1 
3.257259  27.967441 18.441257  1 
1.719610  29.927844 18.501087  1 
2.648112  30.606807 15.720313  3 
3.115460  31.727758 15.093995  1 
2.465210  32.182979 14.156594  4 
4.473868  32.339207 15.512744  1 
4.354167  33.888619 15.568231  1 
3.345490  34.338065 16.630827  1 
5.701638  34.565999 15.849474  1 
5.415864  31.951216 14.463058  3 
6.172154  30.843409 14.280944  1 
6.652075  30.686752 13.151262  4 
7.715759  29.067457 18.488779  2 
8.252675  28.424289 16.931001  2 
6.628844  28.051069 17.536568  2 
6.033630  30.467174 17.391940  2 
8.778230  30.870384 16.126509  2 
8.311796  31.344776 17.768738  2 
7.544577  32.116721 16.383706  2 
7.240727  29.205739 14.927153  2 
5.496170  28.053229 14.460157  2 
4.150854  30.194571 17.114040  2 
1.695668  28.376279 17.031653  2 
3.992991  28.491640 19.061129  2 
3.789273  27.232931 17.829774  2 
2.589564  27.411434 19.108564  2 
2.407002  30.634862 18.977953  2 
1.198014  29.385142 19.299376  2 
0.962366  30.499485 17.955355  2 
1.834883  30.228988 15.241088  2 
4.812936  31.970092 16.475644  2 
4.001396  34.260405 14.596357  2 
3.661559  34.029704 17.632724  2 
2.350155  33.924647 16.443093  2 
3.247405  35.429579 16.628427  2 
6.147129  34.196703 16.778842  2 
5.576027  35.650678 15.946626  2 
6.412682  34.395677 15.034876  2 
5.291040  32.435698 13.578345  2 
13.845140  33.347408 31.330767  1 
13.508470  34.038157 32.663525  1 
14.801914  34.583297 33.277795  1 
12.470447  35.156026 32.436705  1 
11.173414  34.780279 31.859957  3 
10.144353  33.995962 32.272189  1 
9.066637  34.134072 31.684839  4 
10.269534  33.056100 33.487318  1 
9.590335  31.688585 33.200072  1 
10.292983  30.968964 32.040775  1 
9.584851  30.755296 34.420695  1 
9.613739  33.759761 34.588505  3 
10.153049  34.684581 35.437666  1 
9.388880  35.427338 36.048510  4 
11.689479  34.834234 35.544794  1 
12.094403  35.008848 37.035979  1 
11.733623  33.772307 37.866247  1 
13.592596  35.294376 37.201847  1 
12.015812  36.047874 34.796250  3 
12.263741  36.270701 33.484283  1 
12.228860  37.450299 33.112293  4 
14.571419  32.541516 31.481686  2 
14.278623  34.055140 30.614606  2 
12.953224  32.906739 30.874074  2 
13.142847  33.263456 33.333659  2 
15.223991  35.390988 32.670958  2 
15.555670  33.792437 33.359543  2 
14.627892  34.968877 34.285856  2 
12.916323  35.731333 31.606887  2 
10.852468  35.410449 31.130042  2 
11.304011  32.872396 33.736325  2 
8.544267  31.851681 32.909971  2 
11.327654  30.716760 32.298021  2 
10.307579  31.583732 31.136174  2 
9.771243  30.038250 31.792145  2 
10.583442  30.652069 34.858811  2 
9.242699  29.751639 34.138811  2 
8.904555  31.118722 35.197311  2 
8.607960  33.881090 34.502288  2 
12.216917  33.982696 35.126366  2 
11.552553  35.864811 37.461343  2 
12.274124  32.887440 37.514598  2 
10.661654  33.557602 37.825828  2 
11.991872  33.929562 38.919626  2 
14.201321  34.508157 36.743720  2 
13.860351  35.348888 38.263487  2 
13.869664  36.252143 36.750098  2 
11.741054  36.914935 35.249829  2 
9.574768  19.054736 33.607835  1 
8.305312  18.346206 33.104653  1 
7.761714  19.108956 31.892129  1 
8.617397  16.875838 32.759413  1 
9.138921  16.016293 33.829606  3 
8.642509  15.566941 35.011009  1 
9.224299  14.611184 35.534053  4 
7.349194  16.138863 35.624029  1 
7.501557  16.326722 37.158764  1 
8.600963  17.350955 37.471481  1 
6.201478  16.785443 37.837254  1 
6.306887  15.164742 35.303872  3 
5.552861  15.080153 34.167425  1 
5.000802  14.012319 33.914967  4 
5.481965  16.281046 33.194121  1 
4.018737  16.469051 32.702489  1 
3.074764  16.810270 33.860516  1 
3.901101  17.561622 31.631943  1 
6.341987  15.920414 32.067160  3 
7.672191  16.055603 31.855836  1 
8.148937  15.396979 30.923113  4 
9.362009  20.096759 33.869830  2 
10.358277  19.058531 32.841168  2 
9.976724  18.565328 34.500686  2 
7.562554  18.437481 33.893893  2 
8.445247  19.044590 31.039248  2 
7.619592  20.168377 32.132373  2 
6.790302  18.715209 31.581536  2 
9.502270  16.966487 32.105835  2 
9.918187  15.431187 33.541003  2 
7.099566  17.095946 35.190933  2 
7.790073  15.372711 37.618806  2 
8.336930  18.345252 37.094669  2 
9.557639  17.061753 37.026970  2 
8.756709  17.430990 38.552960  2 
5.770307  17.661506 37.340877  2 
6.386330  17.056881 38.884156  2 
5.451206  15.988517 37.841169  2 
6.389177  14.259613 35.759630  2 
5.829143  17.202779 33.650482  2 
3.664845  15.532577 32.249735  2 
3.352614  17.758618 34.331919  2 
3.080059  16.031272 34.628620  2 
2.043801  16.901313 33.500158  2 
4.294902  18.517282 31.992777  2 
2.852745  17.716352 31.351312  2 
4.441693  17.288178 30.720268  2 
5.964869  15.200479 31.456836  2 
15.294833  13.858800 28.745696  1 
14.662751  12.798092 29.663353  1 
15.563089  12.604687 30.887889  1 
13.236561  13.224506 30.066743  1 
12.256252  13.438960 28.994773  3 
11.683580  12.637616 28.059919  1 
10.668193  13.066628 27.502727  4 
12.199118  11.212504 27.779155  1 
12.212069  10.920525 26.253213  1 
13.181260  11.865747 25.530190  1 
12.607878  9.472667 25.924550  1 
11.279851  10.323136 28.487526  3 
11.332311  9.923393 29.793159  1 
10.306324  9.486848 30.308477  4 
12.635411  10.106794 30.607275  1 
12.895247  8.839049 31.469477  1 
13.116234  7.599313 30.596115  1 
14.102176  9.007320 32.401478  1 
12.392688  11.257626 31.476991  3 
12.534332  12.590271 31.286279  1 
11.978475  13.324575 32.112636  4 
16.303503  13.559768 28.440929  2 
15.374816  14.827003 29.253501  2 
14.703630  14.001373 27.835517  2 
14.674204  11.860674 29.111958  2 
15.586228  13.502784 31.513709  2 
16.590615  12.379197 30.581891  2 
15.218562  11.768970 31.502724  2 
13.388939  14.256164 30.428466  2 
11.697606  14.279601 29.113670  2 
13.201670  11.076526 28.156372  2 
11.209074  11.086105 25.838965  2 
14.214664  11.699282 25.853751  2 
12.931913  12.914702 25.714516  2 
13.137781  11.707439 24.446997  2 
13.539242  9.182135 26.422482  2 
12.758099  9.348220 24.844828  2 
11.824806  8.768075 26.221808  2 
10.328442  10.291199 28.130392  2 
13.495915  10.292098 29.971991  2 
12.019775  8.646581 32.104862  2 
14.002350  7.713347 29.963202  2 
12.256126  7.402626 29.949293  2 
13.259714  6.710865 31.221498  2 
15.006514  9.263685 31.840214  2 
14.300226  8.078355 32.948786  2 
13.925907  9.789175 33.146993  2 
11.750305  11.083140 32.245053  2 
5.042979  44.137324 14.420658  1 
4.475242  45.136281 13.397680  1 
3.845737  46.311796 14.152259  1 
5.587451  45.605709 12.437889  1 
6.277591  44.586231 11.637585  3 
5.889627  43.722968 10.663768  1 
6.783731  43.209681 9.983591  4 
4.404037  43.473678 10.337539  1 
4.140192  41.963769 10.083608  1 
4.434096  41.143679 11.347179  1 
2.697648  41.674881 9.640223  1 
4.131499  44.273746 9.144462  3 
3.770577  45.589943 9.076776  1 
3.938652  46.184304 8.015051  4 
3.248983  46.315694 10.339992  1 
2.037566  47.214777 9.962892  1 
0.860902  46.384171 9.439349  1 
1.554076  48.064515 11.145178  1 
4.361265  47.147814 10.798401  3 
5.421424  46.891481 11.600108  1 
6.342556  47.717169 11.571847  4 
4.258437  43.785795 15.099362  2 
5.828735  44.597058 15.031323  2 
5.469032  43.258952 13.925467  2 
3.667601  44.626257 12.877570  2 
4.602172  46.895666 14.686738  2 
3.113971  45.954727 14.885272  2 
3.317477  46.981772 13.468726  2 
6.388569  45.912672 13.132414  2 
7.286925  44.701965 11.610248  2 
3.765326  43.795579 11.146441  2 
4.804153  41.603686 9.287045  2 
3.752965  41.411537 12.162434  2 
5.459319  41.297091 11.696232  2 
4.316090  40.072911 11.147707  2 
1.965195  42.128123 10.316882  2 
2.507093  40.594485 9.623294  2 
2.508986  42.048796 8.628982  2 
4.600484  43.976067 8.292884  2 
2.952852  45.622495 11.121126  2 
2.335431  47.909285 9.165306  2 
0.490655  45.694882 10.205236  2 
1.140146  45.799246 8.558023  2 
0.032263  47.037660 9.143816  2 
1.295939  47.439429 12.006107  2 
0.661923  48.638621 10.869119  2 
2.316536  48.784747 11.458362  2 
4.553132  47.959870 10.218080  2 
20.041001  43.563936 40.231331  1 
19.296682  44.404061 39.179236  1 
20.129979  45.650211 38.862648  1 
19.030358  43.560919 37.915609  1 
18.233476  42.336543 38.063927  3 
16.951094  42.078728 38.428734  1 
16.507355  40.958624 38.156722  4 
16.045622  43.159945 39.050539  1 
15.207070  42.572809 40.219309  1 
16.122742  42.091604 41.353119  1 
14.202007  43.579972 40.799351  1 
15.191750  43.623267 37.957813  3 
15.459053  44.592298 37.032204  1 
14.806741  44.596943 35.991416  4 
16.615712  45.592307 37.270140  1 
16.163343  47.021718 36.857547  1 
14.997146  47.514755 37.720935  1 
17.306692  48.040948 36.944394  1 
17.702794  45.144875 36.399628  3 
18.690895  44.235343 36.569293  1 
19.285416  43.874262 35.545959  4 
20.223243  44.148489 41.139518  2 
21.012836  43.224790 39.854241  2 
19.461754  42.680467 40.518085  2 
18.377897  44.749406 39.647736  2 
21.068305  45.388122 38.363030  2 
20.376377  46.195316 39.780492  2 