NumberOfAtoms 5459
SpinPolarized yes
#FixSpin .true.
#TotalSpin
NumberOfSpecies 4


MD.TypeOfRun  nose
MD.FinalTimeStep 100
MD.LengthTimeStep 1.0  fs
MD.InitialTemperature 300 K
MD.TargetTemperature  300  K


%block ChemicalSpeciesLabel
1 6 C
2 8 O
3 7 N
4 1 H
%endblock ChemicalSpeciesLabel
PAO.BasisSize dzp 
 PAO.EnergyShift 0.02 Ry 
MeshCutoff          100 Ry
MaxSCFIterations    100
DM.NumberPulay       3
DM.Tolerance         1e-3
WriteDenchar	.true.
%block ProjectedDensityOfStates
-10.0 10.0 0.200 500 eV
%endblock ProjectedDensityOfStates
NetCharge 0.00

%block BandLines
1  1.000  1.000 1.000  L
20 0.00   0.00   0.00  \Gamma
25 2.00   0.000  0.00  X
30 2.00   2.00   2.00  \Gamma
%endblock BandLines


LongOutput .true.
WriteCoorXmol .true.
LatticeConstant 1 Ang
%block LatticeVectors
  30 0.0 0.0
  0.0 30 0.0
0.0 0.0 30
%endblock LatticeVectors




#UseSaveData .true.
%block kgrid_Monkhorst_Pack
1 0 0 0.0 
 0 1 0 0.0 
 0 0 1 0.0

%endblock kgrid_Monkhorst_Pack
WriteMDXmol .true.
AtomicCoordinatesFormat Ang
%block AtomicCoordinatesAndAtomicSpecies
9.164381  14.595234 31.290380  1
8.485443  13.768851 30.254944  1
8.100900  12.486899 30.367296  1
8.343078  11.637862 31.596498  1
7.432353  11.763850 29.233517  1
6.267395  12.452283 28.507089  1
5.529532  11.527838 27.518635  1
4.621878  10.406183 28.106374  1
4.065041  9.570722 26.949907  1
5.303228  9.504135 29.153011  1
4.498793  8.284638 29.642041  1
5.348234  7.520813 30.668754  1
4.678176  6.282057 31.293533  1
4.380687  5.211943 30.238994  1
5.455382  5.688478 32.502952  1
6.870296  5.119904 32.260703  1
7.931744  6.163760 31.909940  1
9.309710  5.623126 31.501436  1
9.216883  4.630059 30.339365  1
10.191374  6.808694 31.083117  1
8.794692  15.622935 31.241157  4
10.241412  14.601056 31.103153  4
8.980035  14.231305 32.300904  4
8.299652  14.286081 29.308975  4
9.213066  11.967430 32.170164  4
8.534232  10.593957 31.326919  4
7.462566  11.663099 32.250998  4
7.072646  10.858781 29.692532  4
8.182798  11.424595 28.508794  4
6.669228  13.295036 27.927732  4
5.549865  12.878358 29.217431  4
6.257145  11.103499 26.815860  4
4.878806  12.174178 26.908567  4
3.773883  10.901552 28.596369  4
4.850924  8.978681 26.473829  4
3.607942  10.212391 26.185936  4
3.285038  8.889162 27.301663  4
5.433090  10.100563 30.062050  4
6.268631  9.163752 28.779669  4
4.284561  7.622287 28.795125  4
3.548318  8.603093 30.082321  4
5.685282  8.198370 31.456008  4
6.204260  7.195083 30.080392  4
3.712587  6.620389 31.701096  4
4.782264  4.231477 30.511068  4
4.789677  5.467975 29.257309  4
3.297426  5.094742 30.124107  4
4.845779  4.864600 32.900268  4
5.498327  6.431528 33.309556  4
6.816798  4.338777 31.497825  4
7.190245  4.618957 33.184844  4
8.026489  6.877219 32.735879  4
7.623638  6.746564 31.054798  4
9.775238  5.130087 32.363089  4
9.008146  3.620990 30.709268  4
10.154445  4.585454 29.773026  4
8.421240  4.901001 29.635052  4
9.814455  7.273973 30.157840  4
11.214796  6.480409 30.896993  4
10.215062  7.579539 31.857395  4
2.562051  17.111786 36.465717  1
2.955682  15.989671 35.570226  1
4.147733  15.372704 35.522661  1
5.334770  15.763328 36.376362  1
4.417109  14.255062 34.556471  1
3.391034  13.117997 34.442376  1
3.882420  11.932516 33.588410  1
4.981044  11.005503 34.189285  1
5.366764  9.959281 33.139466  1
6.230251  11.738406 34.714366  1
7.408726  10.856013 35.168258  1
8.545481  11.770738 35.648034  1
9.799922  11.048443 36.175776  1
10.474396  10.219278 35.078841  1
10.816327  11.988430 36.884595  1
11.491505  13.101550 36.054510  1
10.555731  14.222940 35.600470  1
11.152169  15.259488 34.637256  1
11.752775  14.606500 33.389022  1
10.036974  16.226535 34.214106  1
1.520072  16.988803 36.772989  4
2.659190  18.058434 35.927660  4
3.165716  17.153158 37.372064  4
2.171398  15.658499 34.883112  4
5.309641  16.814282 36.675447  4
6.276398  15.623552 35.835298  4
5.368381  15.142971 37.280981  4
5.353100  13.848654 34.899967  4
4.642740  14.662383 33.563161  4
2.486275  13.514080 33.960828  4
3.083753  12.756859 35.430370  4
4.191643  12.305628 32.604263  4
3.003333  11.297384 33.395546  4
4.527039  10.474574 35.035793  4
5.907418  10.414528 32.305668  4
4.476638  9.457849 32.738752  4
5.999829  9.182261 33.577793  4
5.939794  12.261171 35.631587  4
6.587122  12.447882 33.968352  4
7.767056  10.258027 34.322160  4
7.093694  10.174977 35.965508  4
8.173626  12.468784 36.400968  4
8.811999  12.319085 34.746183  4
9.454624  10.348339 36.952669  4
11.539055  10.447860 34.974659  4
10.013633  10.370300 34.098321  4
10.396757  9.153016 35.318521  4
11.621828  11.350467 37.275008  4
10.345357  12.434000 37.770164  4
12.009403  12.650279 35.204133  4
12.273555  13.554629 36.679386  4
10.125760  14.715508 36.479489  4
9.717222  13.819740 35.052573  4
11.930103  15.831272 35.156998  4
12.784055  14.290455 33.576625  4
11.770644  15.301203 32.541190  4
11.182223  13.723497 33.077109  4
9.280208  15.712077 33.599834  4
10.443567  17.047424 33.621968  4
9.527741  16.651112 35.082833  4
13.130405  4.176981 35.710726  1
13.613593  5.483556 35.185959  1
13.436833  5.973261 33.947879  1
12.726651  5.227507 32.838850  1
13.991109  7.309163 33.543710  1
13.759322  8.512372 34.469630  1
14.180898  9.856854 33.844550  1
13.292894  10.443564 32.706744  1
13.946671  11.727800 32.188294  1
13.001767  9.472393 31.546810  1
12.265561  10.056031 30.325824  1
12.077642  8.937574 29.290035  1
11.320770  9.339803 28.009723  1
12.082104  10.407645 27.218660  1
10.926384  8.136212 27.107001  1
12.052918  7.285027 26.482221  1
12.860134  6.453642 27.480491  1
14.090158  5.723895 26.921510  1
15.052536  6.679688 26.210527  1
14.822815  5.044856 28.087706  1
12.822329  4.290837 36.753505  4
13.939547  3.443457 35.662611  4
12.271656  3.797488 35.157443  4
14.176197  6.084110 35.906872  4
12.778188  4.142698 32.961815  4
13.174832  5.444663 31.863695  4
11.671138  5.525398 32.800625  4
13.516199  7.499931 32.596449  4
15.057338  7.216962 33.302591  4
14.361119  8.372034 35.378203  4
12.714574  8.570026 34.795443  4
15.225768  9.786500 33.517940  4
14.180360  10.597383 34.660025  4
12.331345  10.719519 33.158247  4
14.870236  11.511475 31.645147  4
14.185912  12.408533 33.015153  4
13.270417  12.266273 31.517929  4
12.305035  8.715811 31.922432  4
13.926970  9.004904 31.211097  4
12.869494  10.855101 29.880155  4
11.299954  10.476710 30.624649  4
11.594140  8.074567 29.752527  4
13.101196  8.679613 29.023868  4
10.369035  9.787656 28.336172  4
12.230821  10.127965 26.171634  4
13.069325  10.615798 27.641267  4
11.517270  11.346436 27.223242  4
10.336107  8.542778 26.273618  4
10.238945  7.478906 27.654681  4
12.704186  7.932372 25.889093  4
11.588147  6.589127 25.770138  4
12.192982  5.750282 27.990753  4
13.269028  7.083281 28.256518  4
13.762895  4.949364 26.217769  4
14.752096  6.825580 25.167901  4
16.076788  6.288996 26.206174  4
15.079347  7.663913 26.693329  4
15.257462  5.793104 28.770274  4
15.636573  4.419109 27.718866  4
14.145476  4.416160 28.670993  4
26.376300  4.181057 28.747547  1
26.165687  5.057989 27.563223  1
25.741659  4.683949 26.344948  1
25.438775  3.252076 25.959656  1
25.583162  5.675571 25.228357  1
24.834949  6.986946 25.509847  1
24.549223  7.814040 24.240848  1
23.456436  7.292946 23.260205  1
23.406666  8.222313 22.043950  1
23.627705  5.826518 22.820168  1
22.667479  5.316461 21.728726  1
23.003074  3.847151 21.432720  1
22.109076  3.161508 20.381767  1
22.248723  3.822843 19.007419  1
22.307355  1.621312 20.294814  1
23.684225  1.080664 19.852238  1
24.818059  1.312274 20.852297  1
26.230217  0.937838 20.379477  1
26.602236  1.636371 19.068423  1
27.231022  1.345578 21.470364  1
26.081606  4.713099 29.656034  4
27.434908  3.918857 28.822947  4
25.785011  3.266906 28.699683  4
26.396403  6.114088 27.731533  4
26.002751  2.528668 26.553962  4
25.701513  3.057813 24.914581  4
24.367781  3.047312 26.083556  4
25.047277  5.121284 24.476806  4
26.557790  5.886504 24.771092  4
25.457375  7.606759 26.169981  4
23.898084  6.804433 26.048316  4
25.492202  7.986685 23.707593  4
24.220884  8.809097 24.580608  4
22.492764  7.373643 23.779248  4
24.305947  8.121798 21.430789  4
23.317963  9.271231 22.354162  4
22.536646  8.000308 21.419097  4
23.385005  5.197098 23.682648  4
24.653716  5.651630 22.497735  4
22.806338  5.903874 20.813556  4
21.627078  5.420830 22.053283  4
23.000994  3.267500 22.358169  4
24.018138  3.904302 21.043580  4
21.068780  3.306492 20.712980  4
22.481852  3.103324 18.217138  4
23.030566  4.587651 18.989524  4
21.306285  4.308764 18.731594  4
21.570846  1.245497 19.570543  4
22.030703  1.162926 21.252897  4
23.932467  1.493030 18.870741  4
23.585091  -0.004162 19.708443  4
24.580028  0.807016 21.794757  4
24.901364  2.360797 21.096257  4
26.289613  -0.148221 20.240920  4
26.238348  1.064029 18.208988  4
27.688554  1.736711 18.960747  4
26.172564  2.643450 19.007691  4
27.277945  2.441878 21.573399  4
28.233182  0.991646 21.224981  4
26.950705  0.931758 22.442190  4
21.428791  1.817340 38.921284  1
21.769712  3.262830 39.022877  1
22.023068  4.107311 38.009684  1
22.041832  3.696388 36.553236  1
22.368608  5.548160 38.254156  1
21.495157  6.360100 39.221938  1
21.815573  7.867882 39.218674  1
21.380757  8.704178 37.978140  1
21.873710  10.142693 38.160211  1
21.840665  8.136992 36.621614  1
21.574677  9.011599 35.381553  1
22.106931  8.275352 34.143101  1
21.890040  8.996355 32.798870  1
22.642551  10.329339 32.748121  1
22.205027  8.117458 31.554923  1
23.653750  7.624147 31.350500  1
24.133515  6.594915 32.375122  1
25.616944  6.204462 32.304870  1
26.537931  7.425037 32.389644  1
25.925114  5.257389 33.473621  1
20.692535  1.558540 39.686930  4
22.328790  1.218539 39.084144  4
20.997794  1.557713 37.954628  4
21.819066  3.648502 40.045483  4
22.287419  2.640019 36.417747  4
22.795374  4.258256 35.991605  4
21.063640  3.889622 36.094858  4
22.307540  5.989042 37.273785  4
23.426167  5.639883 38.530995  4
21.672016  5.991182 40.241732  4
20.428740  6.210509 39.018589  4
22.885387  8.005784 39.418315  4
21.298965  8.301656 40.089501  4
20.283477  8.727388 37.973693  4
22.962484  10.201658 38.083591  4
21.576346  10.539113 39.139372  4
21.438547  10.802517 37.403953  4
21.247593  7.237435 36.426666  4
22.901801  7.892582 36.660379  4
22.106082  9.965041 35.483672  4
20.504575  9.220037 35.281062  4
21.688844  7.267636 34.096549  4
23.176202  8.215054 34.338225  4
20.814125  9.222764 32.734947  4
23.279502  10.418323 31.863260  4
23.281097  10.481974 33.623045  4
21.927283  11.158553 32.713715  4
21.944641  8.713861 30.669061  4
21.524449  7.256666 31.534289  4
24.324114  8.486830 31.313124  4
23.708586  7.155073 30.358373  4
23.497206  5.704761 32.321160  4
24.018152  6.975660 33.378906  4
25.807056  5.671629 31.365617  4
26.680422  7.870943 31.399955  4
27.528264  7.155224 32.774601  4
26.128920  8.198357 33.050855  4
25.844153  5.782450 34.439255  4
26.939358  4.864142 33.393175  4
25.231716  4.412986 33.494885  4
19.044954  1.248814 35.489774  1
19.128757  2.735053 35.497720  1
19.097082  3.552720 34.432677  1
19.008433  3.070464 33.000888  1
19.204014  5.043211 34.581706  1
18.325478  5.742623 35.629448  1
18.364958  7.280625 35.534186  1
17.635087  7.957018 34.335369  1
17.878491  9.467528 34.403129  1
18.017518  7.404000 32.949262  1
17.445485  8.147636 31.727287  1
17.943770  7.447721 30.454123  1
17.434453  8.043129 29.127500  1
17.921191  9.482305 28.933701  1
17.745890  7.164649 27.882367  1
19.223045  6.921936 27.504149  1
20.004789  6.051664 28.489464  1
21.513899  5.923652 28.236182  1
22.202201  7.289426 28.158014  1
22.131316  5.112174 29.384309  1
18.468769  0.908427 36.354303  4
20.051568  0.826921 35.551566  4
18.551115  0.863980 34.597802  4
19.234430  3.180101 36.491535  4
19.422228  2.067503 32.868867  4
19.572059  3.723214 32.326209  4
17.962107  3.063452 32.670038  4
18.942671  5.410946 33.604104  4
20.253635  5.334047 34.712831  4
18.691677  5.468108 36.628396  4
17.286828  5.397473 35.574201  4
19.408575  7.614672 35.585694  4
17.890887  7.665359 36.451040  4
16.559829  7.787468 34.475570  4
18.920497  9.711821 34.181045  4
17.638555  9.860002 35.399485  4
17.240476  9.997535 33.689904  4
17.577355  6.405011 32.864288  4
19.101793  7.351715 32.855120  4
17.804186  9.183592 31.726699  4
16.351286  8.159533 31.762652  4
17.712355  6.381371 30.496531  4
19.022144  7.586597 30.507745  4
16.335885  8.073724 29.199269  4
18.416370  9.631703 27.969813  4
18.625448  9.793169 29.710822  4
17.069114  10.170227 28.967111  4
17.273727  7.655653 27.019681  4
17.235040  6.198212 27.980394  4
19.716366  7.885191 27.349946  4
19.237896  6.414857 26.529468  4
19.538292  5.062250 28.549576  4
19.948314  6.461975 29.486616  4
21.678840  5.380549 27.298054  4
22.137382  7.697217 27.144050  4
23.265085  7.219176 28.417040  4
21.745600  8.015011 28.841795  4
22.077552  5.668227 30.334365  4
23.181925  4.898698 29.183177  4
21.610210  4.161951 29.525001  4
37.568817  0.974367 15.682551  1
37.349906  0.060731 16.025123  1
37.369458  -0.122698 17.007957  1
37.607921  0.607502 17.648226  1
37.627472  0.424066 18.631067  1
37.865934  1.154266 19.271336  1
37.885486  0.970837 20.254169  1
38.123949  1.701036 20.894438  1
38.143500  1.517601 21.877279  1
38.381962  2.247800 22.517548  1
38.401514  2.064371 23.500382  1
38.639977  2.794571 24.140650  1
38.659528  2.611135 25.123492  1
38.897990  3.341335 25.763760  1
38.917543  3.157905 26.746594  1
39.156005  3.888105 27.386863  1
39.175556  3.704669 28.369704  1
39.414019  4.434869 29.009973  1
39.433571  4.251440 29.992806  1
39.672033  4.981640 30.633075  1
39.691584  4.798204 31.615916  1
39.930047  5.528404 32.256185  1
40.066752  1.977222 20.545336  1
40.008836  0.979576 20.508519  1
39.980590  0.448778 21.355541  1
40.010258  0.915617 22.239385  1
39.982012  0.384811 23.086412  1
40.011680  0.851650 23.970256  1
39.983434  0.320853 24.817278  1
40.013103  0.787692 25.701122  1
39.984856  0.256886 26.548149  1
40.014525  0.723725 27.431993  1
39.986278  0.192927 28.279016  1
40.015947  0.659767 29.162860  1
39.987700  0.128961 30.009886  1
40.017369  0.595800 30.893731  1
39.989123  0.065002 31.740753  1
40.018792  0.531842 32.624597  1
39.990545  0.001035 33.471624  1
40.020213  0.467875 34.355468  1
39.991967  -0.062923 35.202490  1
40.021636  0.403917 36.086334  1
39.993389  -0.126890 36.933361  1
40.023058  0.339950 37.817205  1
25.145027  30.053833 38.356534  1
25.407379  31.016722 38.293163  1
24.703965  31.721670 38.202339  1
23.738190  31.463730 38.174884  1
23.034767  32.168680 38.084059  1
22.069002  31.910738 38.056605  1
21.365578  32.615688 37.965780  1
20.399813  32.357746 37.938326  1
19.696390  33.062696 37.847500  1
18.730624  32.804754 37.820047  1
18.027201  33.509704 37.729221  1
17.061435  33.251762 37.701768  1
16.358012  33.956712 37.610942  1
15.392247  33.698770 37.583488  1
14.688823  34.403720 37.492663  1
13.723058  34.145778 37.465209  1
13.019635  34.850728 37.374384  1
24.834911  37.960961 39.999911  1
24.334975  38.827023 39.999505  1
23.334980  38.827100 39.999121  1
22.834912  37.961109 39.999141  1
21.834908  37.961181 39.998757  1
21.334849  37.095195 39.998777  1
20.334845  37.095267 39.998393  1
19.834786  36.229281 39.998414  1
18.834782  36.229353 39.998029  1
18.334722  35.363367 39.998050  1
17.334718  35.363439 39.997665  1
16.834659  34.497453 39.997686  1
15.834655  34.497525 39.997301  1
15.334596  33.631539 39.997322  1
14.334592  33.631611 39.996937  1
13.834532  32.765625 39.996958  1
12.834528  32.765697 39.996573  1
28.854841  39.579634 21.961340  1
28.455412  39.575236 21.044587  1
28.431795  38.728230 20.513537  1
28.807611  37.885612 20.899240  1
28.783996  37.038597 20.368190  1
29.159809  36.195989 20.753893  1
29.136195  35.348973 20.222843  1
29.512008  34.506365 20.608547  1
29.488394  33.659350 20.077496  1
29.864207  32.816742 20.463200  1
29.840593  31.969726 19.932149  1
30.216406  31.127119 20.317853  1
30.192792  30.280103 19.786803  1
30.568605  29.437495 20.172506  1
30.544991  28.590479 19.641456  1
30.920804  27.747872 20.027159  1
30.897189  26.900856 19.496109  1
35.003818  33.583185 23.833407  1
35.771453  33.008031 23.550678  1
35.836355  32.690328 22.604717  1
35.133619  32.947779 21.941475  1
35.198517  32.630076 20.995504  1
34.495785  32.887526 20.332272  1
34.560683  32.569823 19.386301  1
33.857951  32.827274 18.723069  1
33.922849  32.509571 17.777098  1
33.220117  32.767022 17.113866  1
33.285015  32.449319 16.167895  1
32.582283  32.706770 15.504663  1
32.647181  32.389066 14.558692  1
31.944449  32.646517 13.895459  1
32.009347  32.328814 12.949489  1
31.306615  32.586265 12.286256  1
31.371513  32.268562 11.340285  1
8.124114  0.823128 35.711918  1
6.727273  0.563401 36.204565  1
6.508259  0.425903 37.577683  1
5.221150  0.197257 38.023012  1
4.149973  0.102701 37.210749  3
4.347534  0.239082 35.888717  1
3.243721  0.164817 35.049391  1
3.357324  0.306832 33.664723  1
4.605498  0.513154 33.096081  1
5.731388  0.586576 33.915396  1
5.623217  0.463795 35.321089  1
8.833029  0.915143 36.541881  4
8.160458  1.761391 35.148938  4
8.463869  -0.000984 35.076495  4
7.320380  0.499385 38.293127  4
5.007738  0.085434 39.082200  4
2.263184  -0.001287 35.489414  4
2.469773  0.255945 33.039716  4
4.705707  0.621690 32.019341  4
6.697788  0.747087 33.444897  4
5.976261  3.060872 35.422563  1
4.740437  2.549392 36.109913  1
4.790286  2.279585 37.479966  1
3.648493  1.819428 38.105917  1
2.474826  1.616831 37.475367  3
2.413306  1.878445 36.158867  1
1.200169  1.692664 35.509123  1
1.044981  1.951171 34.145499  1
2.130170  2.392188 33.402714  1
3.361378  2.582068 34.029108  1
3.522843  2.341829 35.414375  1
6.800668  3.202666 36.129751  4
5.778099  4.031612 34.956730  4
6.311854  2.348955 34.661704  4
5.697522  2.427702 38.055972  4
3.644462  1.598634 39.169478  4
0.347055  1.342737 36.085676  4
0.077112  1.806854 33.672878  4
2.021323  2.593206 32.340201  4
4.196117  2.926480 33.424416  4
5.548404  32.833509 23.070138  1
5.538748  34.105732 23.856002  1
4.520673  34.306462 24.735596  3
4.477253  35.443281 25.463817  1
5.411517  36.463227 25.393707  1
6.471460  36.281124 24.494558  1
7.611589  37.065438 24.126956  1
8.108897  38.323056 24.527195  1
9.287156  38.812561 23.951237  1
9.969131  38.070190 22.990116  1
9.497419  36.821154 22.576694  1
8.317770  36.347893 23.163182  1
7.633691  35.174706 22.953432  3
7.919457  34.458270 22.302645  4
6.510941  35.106102 23.745910  1
4.688068  32.207564 23.326244  4
6.460808  32.267711 23.281957  4
5.507427  33.053087 21.998868  4
3.629791  35.518588 26.139951  4
5.321448  37.352220 26.004875  4
7.584644  38.909524 25.275724  4
9.672165  39.781874 24.258387  4
10.883071  38.467361 22.554057  4
10.031485  36.246154 21.827351  4
5.918853  29.832039 24.687580  1
5.211796  30.897648 25.462676  1
3.965177  30.625199 25.934024  3
3.294482  31.562294 26.638701  1
3.779439  32.824861 26.936689  1
5.062559  33.131095 26.462418  1
5.906419  34.284783 26.546541  1
5.773376  35.557811 27.138832  1
6.821020  36.480059 27.031420  1
7.988737  36.151357 26.347059  1
8.145475  34.896547 25.751737  1
7.087530  33.987425 25.869063  1
6.965825  32.704448 25.392109  3
7.676963  32.225840 24.859489  4
5.749756  32.160163 25.735945  1
5.300876  28.932856 24.603028  4
6.853843  29.561232 25.187511  4
6.146301  30.189368 23.678572  4
2.306970  31.258304 26.975494  4
3.192302  33.533351 27.507004  4
4.867072  35.823766 27.674521  4
6.720405  37.462000 27.487282  4
8.791799  36.881412 26.274343  4
9.056632  34.644572 25.219131  4
39.209804  30.601256 6.322366  1
38.324658  31.809528 6.374571  1
38.520242  32.873153 5.507695  1
37.591489  33.918537 5.485495  1
37.742367  34.971189 4.565980  1
36.768962  35.976441 4.451915  1
36.841595  37.000318 3.503143  1
35.900149  37.958959 3.335188  3
34.837174  37.907275 4.160119  1
34.675816  36.955428 5.153200  1
35.654276  35.963205 5.303612  1
35.534717  34.938648 6.262077  1
36.485434  33.889397 6.361120  1
36.404082  32.794396 7.252671  1
35.279818  32.601729 8.227879  1
37.297664  31.769491 7.247587  3
40.061449  30.748214 5.650906  4
38.631973  29.746033 5.955920  4
39.594022  30.368543 7.319536  4
39.363819  32.866406 4.824150  4
38.603121  34.988740 3.903228  4
37.679091  37.070411 2.814446  4
34.085184  38.674482 3.996306  4
33.791238  36.977628 5.781789  4
34.668001  34.950641 6.914722  4
34.717483  33.513110 8.438114  4
35.679902  32.252293 9.186401  4
34.588847  31.843519 7.844896  4
27.314887  32.320193 24.793269  1
28.436791  33.024864 24.092456  1
28.388724  34.388490 23.841437  1
29.457764  35.035724 23.178579  1
29.491269  36.431469 22.881732  1
28.443415  37.264710 23.236842  2
30.564753  37.060826 22.221020  1
30.541046  38.390939 21.967091  3
31.585071  38.957673 21.334018  1
32.696977  38.258132 20.919732  1
32.746200  36.886868 21.168846  1
33.958675  36.114868 20.719032  1
31.657633  36.264482 21.835628  1
31.631323  34.882630 22.125420  1
30.558383  34.244664 22.789290  1
30.522862  32.860188 23.086968  1
31.618967  31.891750 22.737240  1
29.483157  32.265266 23.724467  3
26.506721  33.006981 25.062390  4
27.686042  31.853550 25.711034  4
26.900851  31.543658 24.142613  4
27.509132  34.928707 24.170770  4
27.740677  36.779337 23.681760  4
31.497064  40.026739 21.164668  4
33.504096  38.776689 20.414309  4
34.690428  36.762548 20.225179  4
33.670982  35.339606 20.001316  4
34.456760  35.654621 21.578689  4
32.485680  34.290259 21.817399  4
32.477296  32.334184 22.232301  4
31.219308  31.113044 22.079241  4
31.989860  31.417665 23.652055  4
33.250710  11.478185 21.396437  1
32.793465  10.414712 20.383186  1
33.517798  10.654741 19.054566  1
33.068475  9.000825 20.934423  1
32.430849  8.623370 22.202128  3
31.144038  8.460582 22.604216  1
30.961883  7.840983 23.657042  2
29.953793  8.922339 21.740707  1
28.859491  9.588634 22.619612  1
29.404181  10.855836 23.292701  1
27.599315  9.963083 21.824173  1
29.455671  7.710962 21.090893  3
29.886611  7.141543 19.925871  1
29.618635  5.960084 19.723099  2
30.762279  7.955791 18.943682  1
30.292076  7.693983 17.484761  1
28.853624  8.173270 17.261862  1
31.202603  8.368706 16.450687  1
32.123231  7.451103 19.124888  3
33.108086  7.777068 19.994476  1
34.047548  6.976793 20.084019  2
33.047221  12.487048 21.021597  4
34.327456  11.406585 21.589234  4
32.727446  11.369183 22.351730  4
31.735441  10.589864 20.201998  4
34.593698  10.473866 19.146706  4
33.376193  11.687288 18.716805  4
33.127907  10.001811 18.269193  4
34.128072  9.064290 21.237089  4
33.054075  8.144985 22.846826  4
30.265296  9.635928 20.992609  4
28.550559  8.893699 23.411220  4
29.667327  11.618199 22.551159  4
30.294415  10.641854 23.891158  4
28.655614  11.286087 23.967083  4
27.841144  10.546139 20.928993  4
26.919632  10.567309 22.438009  4
27.043967  9.072159 21.514567  4
29.032047  7.019536 21.704259  4
30.727726  9.021602 19.146765  4
30.317886  6.614172 17.283390  4
28.768804  9.254710 17.410448  4
28.153299  7.678088 17.940972  4
28.528119  7.945962 16.240389  4
31.275702  9.446717 16.627082  4
30.811795  8.221322 15.437133  4
32.212422  7.946796 16.471146  4
32.286513  6.521430 18.747970  4
34.386600  1.573186 9.266710  1
34.659428  3.083838 9.165611  1
35.716783  3.465487 10.206691  1
35.109451  3.449293 7.736453  1
34.190765  3.149641 6.630857  3
32.952098  3.584498 6.283499  1
32.584910  3.358506 5.126077  2
32.081238  4.420305 7.241925  1
30.599253  3.956965 7.187535  1
30.469339  2.503913 7.664295  1
29.666833  4.833626 8.037851  1
32.227733  5.802996 6.789686  3
33.199350  6.702051 7.128633  1
33.377436  7.669504 6.393043  2
34.098197  6.442734 8.361240  1
34.291043  7.766182 9.154575  1
32.961302  8.290794 9.706945  1
35.279984  7.608356 10.316774  1
35.381935  5.996500 7.820290  3
35.841414  4.777962 7.450939  1
36.871029  4.765054 6.764810  2
34.052309  1.303787 10.274377  4
35.289581  0.990760 9.049719  4
33.605817  1.261641 8.565576  4
33.738875  3.587685 9.451341  4
36.687359  3.014603 9.975501  4
35.416859  3.128996 11.205245  4
35.847383  4.549715 10.257065  4
35.918100  2.722182 7.547303  4
34.644673  2.729409 5.824464  4
32.424350  4.331735 8.261888  4
30.237124  4.004857 6.152361  4
30.753183  2.404194 8.717773  4
31.100088  1.830459 7.076867  4
29.436201  2.154828 7.559292  4
30.039746  4.951523 9.060994  4
28.666557  4.387112 8.100496  4
29.545808  5.829079 7.599170  4
31.828263  6.017810 5.879728  4
33.685683  5.685280 9.020394  4
34.699236  8.535016 8.484141  4
32.519718  7.582675 10.415717  4
32.236295  8.473352 8.908266  4
33.112311  9.242180 10.229526  4
34.968964  6.810863 10.999297  4
35.347240  8.536828 10.895704  4
36.287879  7.379830 9.956098  4
35.932605  6.725059 7.374212  4
2.893809  7.746075 11.785924  1
3.962796  6.647060 11.658814  1
4.828577  6.651672 12.922897  1
3.293133  5.276379 11.432203  1
2.437182  5.118842 10.249559  3
2.654323  5.162814 8.909793  1
1.774708  4.686335 8.185381  2
3.979574  5.676321 8.313495  1
3.716488  6.564469 7.066139  1
2.918909  7.817328 7.453117  1
5.009347  7.007882 6.364086  1
4.737495  4.475140 7.966310  3
5.559138  3.735613 8.769569  1
5.815776  2.582447 8.433235  2
6.069750  4.324352 10.106413  1
7.572438  3.970391 10.292761  1
8.439666  4.600410 9.197529  1
8.108192  4.411615 11.660938  1
5.273739  3.674599 11.147529  3
4.066057  3.964551 11.685868  1
3.530958  3.066528 12.347887  2
3.358444  8.726985 11.933055  4
2.232513  7.560483 12.640280  4
2.274847  7.805783 10.885040  4
4.609244  6.933669 10.832448  4
4.253186  6.347716 13.803409  4
5.233100  7.652095 13.112113  4
5.679747  5.973319 12.820475  4
2.546844  5.237828 12.244576  4
1.562614  4.637026 10.438982  4
4.532748  6.261585 9.032772  4
3.124090  6.001900 6.332928  4
3.489967  8.457479 8.134606  4
1.974965  7.557817 7.941051  4
2.672768  8.407454 6.563496  4
5.720099  7.457544 7.065813  4
4.792681  7.754518 5.589850  4
5.502215  6.166094 5.867609  4
4.355922  3.911538 7.210996  4
5.945169  5.401532 10.156940  4
7.698911  2.880683 10.231517  4
8.386972  5.693544 9.230205  4
8.132095  4.272158 8.200282  4
9.488422  4.308714 9.324235  4
7.959197  5.484455 11.820254  4
9.182469  4.207807 11.739278  4
7.617330  3.870614 12.476128  4
5.500257  2.697057 11.309147  4
35.699310  4.823726 21.729021  1
35.634437  4.786365 20.192428  1
36.496821  5.922976 19.633937  1
36.099433  3.410658 19.673026  1
35.358400  2.223703 20.118139  3
34.084191  1.784495 19.952174  1
33.866537  0.594545 20.201516  2
32.977767  2.687729 19.372912  1
31.645499  2.495812 20.148895  1
31.807600  2.920979 21.614670  1
30.478402  3.287242 19.538566  1
32.845629  2.286513 17.973133  3
33.562790  2.730292 16.897976  1
33.575870  2.038450 15.883107  2
34.399783  4.027183 17.007549  1
34.230564  4.868975 15.711078  1
32.778912  5.320633 15.518072  1
35.137802  6.106063 15.698734  1
35.788339  3.585096 17.134851  3
36.535495  3.223608 18.204179  1
37.591367  2.626958 17.958843  2
35.357564  5.791956 22.110412  4
36.723536  4.668474 22.087543  4
35.063966  4.050990 22.173419  4
34.605441  5.006504 19.917425  4
37.558408  5.762806 19.848744  4
36.204165  6.883249 20.072706  4
36.377481  6.013094 18.550987  4
37.062212  3.271300 20.194579  4
35.955136  1.447697 20.391301  4
33.252873  3.730342 19.429208  4
31.362173  1.435354 20.135747  4
32.025043  3.991664 21.696408  4
32.616015  2.371292 22.105347  4
30.889801  2.719672 22.178033  4
30.736063  4.341045 19.387264  4
29.601478  3.253105 20.197120  4
30.171851  2.866576 18.575716  4
32.479116  1.352066 17.811197  4
34.117819  4.628651 17.866107  4
34.506649  4.256210 14.841880  4
32.453873  5.970378 16.337198  4
32.094773  4.468623 15.464375  4
32.672948  5.879283 14.581209  4
34.961619  6.738327 16.574958  4
34.951264  6.713142 14.805200  4
36.195855  5.826000 15.682856  4
36.194692  3.206784 16.283513  4
29.358681  0.759819 16.898624  1
29.735999  1.232041 15.483930  1
31.146483  0.731537 15.156006  1
28.699810  0.726404 14.459619  1
27.301060  1.134719 14.640987  3
26.650650  2.326503 14.615033  1
25.421068  2.289567 14.504179  2
27.406585  3.669662 14.608939  1
26.712477  4.698289 15.543850  1
26.738889  4.210266 16.998729  1
27.358983  6.090991 15.485626  1
27.390946  4.114867 13.216327  3
28.265193  3.789655 12.217753  1
27.903824  3.949420 11.054713  2
29.634120  3.156177 12.563057  1
30.742439  3.792993 11.677516  1
30.891751  5.292973 11.953754  1
32.105154  3.116845 11.876140  1
29.497821  1.735422 12.242728  3
29.031048  0.681620 12.952660  1
28.779140  -0.344721 12.309067  2
30.080306  1.125173 17.637199  4
29.344211  -0.334477 16.961773  4
28.370760  1.129221 17.191586  4
29.786804  2.317881 15.519861  4
31.175730  -0.360112 15.077184  4
31.855768  1.033483 15.934487  4
31.504630  1.151637 14.212401  4
28.641098  -0.351232 14.691209  4
26.634463  0.378101 14.514208  4
28.426570  3.547349 14.941451  4
25.661994  4.814092 15.247047  4
27.765071  4.140073 17.376023  4
26.270819  3.226971 17.101177  4
26.188185  4.900848 17.646867  4
28.443161  6.043140 15.634125  4
26.947163  6.741707 16.267180  4
27.164634  6.580901 14.526339  4
26.480794  4.368766 12.840954  4
29.894083  3.281086 13.609578  4
30.473559  3.674882 10.618761  4
31.198080  5.476687 12.988741  4
29.957170  5.831899 11.772185  4
31.649942  5.730269 11.294249  4
32.412741  3.140923 12.926557  4
32.878441  3.626229 11.289370  4
32.085700  2.073244 11.546474  4
29.472230  1.523335 11.249057  4
31.293113  5.753380 31.240147  1
31.967651  4.693411 30.352347  1
32.315545  3.475719 31.214727  1
31.041752  4.314243 29.178672  1
30.630047  5.381458 28.257984  3
31.289971  6.192829 27.391823  1
30.608222  6.776130 26.542998  2
32.827385  6.301709 27.384518  1
33.275632  7.777871 27.200293  1
32.801175  8.638053 28.379494  1
34.799185  7.928531 27.069663  1
33.268174  5.464346 26.269912  3
33.513085  4.120010 26.271242  1
33.516310  3.529279 25.194303  2
33.691082  3.366771 27.611182  1
34.866878  2.356370 27.490024  1
36.197904  3.069551 27.228712  1