NumberOfAtoms 2455
SpinPolarized yes
#FixSpin .true.
#TotalSpin
NumberOfSpecies 4


MD.TypeOfRun  nose
MD.FinalTimeStep 50
MD.LengthTimeStep 0.5  fs
MD.InitialTemperature 300 K
MD.TargetTemperature  300  K


%block ChemicalSpeciesLabel
1 6 C
2 8 O
3 7 N
4 1 H
%endblock ChemicalSpeciesLabel
PAO.BasisSize dzp 
 PAO.EnergyShift 0.02 Ry 
MeshCutoff          100 Ry
MaxSCFIterations    100
DM.NumberPulay       3
DM.Tolerance         1e-3
WriteDenchar	.true.
%block ProjectedDensityOfStates
-10.0 10.0 0.200 500 eV
%endblock ProjectedDensityOfStates
NetCharge 0.00

%block BandLines
1  1.000  1.000 1.000  L
20 0.00   0.00   0.00  \Gamma
25 2.00   0.000  0.00  X
30 2.00   2.00   2.00  \Gamma
%endblock BandLines


LongOutput .true.
WriteCoorXmol .true.
LatticeConstant 1 Ang
%block LatticeVectors
  30 0.0 0.0
  0.0 30 0.0
0.0 0.0 30
%endblock LatticeVectors




#UseSaveData .true.
%block kgrid_Monkhorst_Pack
1 0 0 0.0 
 0 1 0 0.0 
 0 0 1 0.0

%endblock kgrid_Monkhorst_Pack
WriteMDXmol .true.
AtomicCoordinatesFormat Ang
%block AtomicCoordinatesAndAtomicSpecies
49.018309  38.839175 14.419951  1
49.205354  38.318833 15.802069  1
48.723175  38.848824 16.938076  1
47.917609  40.128695 16.996749  1
48.998944  38.225312 18.276132  1
48.791356  36.712372 18.439488  1
48.893662  36.234066 19.901281  1
47.727412  36.592399 20.870218  1
48.084374  36.090964 22.272580  1
47.349531  38.085529 20.904034  1
46.314714  38.512114 21.962626  1
46.081613  40.024799 21.833920  1
45.039893  40.619826 22.800669  1
45.477273  40.468993 24.260685  1
44.644170  42.088094 22.474064  1
45.731486  43.180564 22.564603  1
46.825344  43.089382 21.499474  1
48.009456  44.054598 21.655002  1
48.673110  43.934428 23.029895  1
49.043108  43.733719 20.565739  1
48.908748  38.003140 13.724030  4
49.894811  39.424298 14.129334  4
48.127692  39.460007 14.325314  4
49.811171  37.410294 15.868731  4
48.140317  40.803873 16.166615  4
48.131187  40.690943 17.911742  4
46.844559  39.899187 16.982676  4
48.325428  38.744294 18.936638  4
49.999294  38.509971 18.625063  4
49.573549  36.191342 17.870225  4
47.833249  36.392620 18.014322  4
49.853469  36.563294 20.318123  4
48.952188  35.134540 19.869653  4
46.844924  36.033946 20.532687  4
48.903796  36.671128 22.704708  4
48.386117  35.036133 22.247841  4
47.222256  36.159998 22.942392  4
46.850547  38.316835 19.957220  4
48.245725  38.694163 21.020868  4
46.704009  38.296672 22.964577  4
45.378444  37.960713 21.828392  4
45.821301  40.278548 20.804210  4
47.058294  40.441533 22.073669  4
44.118806  40.030346 22.670094  4
45.453979  41.417045 24.805897  4
46.490366  40.067104 24.353729  4
44.801300  39.782072 24.781826  4
43.851511  42.369524 23.181693  4
44.174464  42.127769 21.482913  4
46.158498  43.178580 23.570914  4
45.235438  44.154091 22.448267  4
46.374278  43.188892 20.506090  4
47.288791  42.114248 21.513164  4
47.659312  45.083543 21.510357  4
48.156364  44.560665 23.764346  4
49.720137  44.257870 23.000363  4
48.659394  42.902127 23.399601  4
49.496938  42.743143 20.731532  4
49.846250  44.471800 20.567909  4
48.586296  43.728454 19.572982  4
30.078350  44.913395 11.630458  1
31.074226  45.666114 12.441405  1
31.903186  45.166091 13.372372  1
31.927129  43.710717 13.786815  1
32.856353  46.044682 14.130503  1
33.718387  47.044288 13.345361  1
34.802830  47.724893 14.203756  1
36.029333  46.870466 14.643105  1
36.922391  47.724745 15.547612  1
35.676819  45.535871 15.327185  1
36.849912  44.734110 15.922561  1
36.291231  43.451130 16.555772  1
37.339470  42.505065 17.172212  1
38.074420  43.166161 18.342040  1
36.773709  41.111964 17.570037  1
35.690072  41.044205 18.667799  1
34.336920  41.638275 18.273587  1
33.286415  41.738967 19.389047  1
33.809152  42.511095 20.603861  1
32.050525  42.457112 18.828033  1
30.039130  45.327460 10.619381  4
29.089654  45.009417 12.086905  4
30.328107  43.856530 11.539657  4
31.106172  46.741099 12.240683  4
30.966167  43.213683 13.631583  4
32.155660  43.604806 14.852416  4
32.695939  43.170404 13.219980  4
33.501867  45.341185 14.628137  4
32.329318  46.557196 14.944780  4
33.063958  47.837195 12.957575  4
34.183302  46.571485 12.472843  4
34.327506  48.190384 15.075973  4
35.197986  48.561958 13.606631  4
36.601541  46.637788 13.735901  4
36.443043  47.917117 16.510937  4
37.148717  48.690301 15.077710  4
37.879480  47.228023 15.731757  4
35.282356  44.867892 14.554432  4
34.931396  45.701080 16.104552  4
37.343626  45.328288 16.700423  4
37.585940  44.497546 15.147343  4
35.681496  42.908749 15.830168  4
35.653708  43.831791 17.351833  4
38.083902  42.306999 16.385110  4
38.053895  42.555629 19.249471  4
37.655410  44.143131 18.599899  4
39.127557  43.318021 18.080831  4
37.623689  40.512375 17.925390  4
36.410666  40.595422 16.672283  4
36.074655  41.507833 19.580021  4
35.529070  39.984917 18.911396  4
33.935897  41.089821 17.414196  4
34.452462  42.658801 17.940367  4
32.991208  40.729989 19.700602  4
34.358812  41.845565 21.277332  4
32.989798  42.957725 21.179128  4
34.484134  43.323809 20.309905  4
32.277667  43.510023 18.594627  4
31.236313  42.445776 19.553798  4
31.696741  41.981633 17.909868  4
22.524219  37.613866 39.935753  1
23.347326  36.475471 39.443269  1
24.685061  36.364933 39.489574  1
25.602213  37.438801 40.033714  1
25.394284  35.159765 38.942049  1
24.879823  33.765075 39.327968  1
25.815710  32.622735 38.886088  1
27.159294  32.441162 39.653677  1
27.952332  31.310429 38.991852  1
28.017151  33.715726 39.767450  1
29.423381  33.549695 40.374401  1
30.110201  34.923365 40.395000  1
31.523277  34.949079 41.008513  1
32.503088  34.094207 40.199279  1
32.080391  36.381566 41.246599  1
32.315813  37.292253 40.022194  1
31.043649  37.752787 39.308857  1
31.240351  38.521542 37.994218  1
32.091037  37.737487 36.990824  1
29.859437  38.794489 37.380644  1
21.595171  37.235022 40.370046  4
22.276724  38.272984 39.099455  4
23.031905  38.192114 40.707422  4
22.773754  35.659460 38.993776  4
25.169866  38.439625 39.956166  4
26.546868  37.471947 39.481013  4
25.833055  37.238249 41.087659  4
26.400446  35.275121 39.307514  4
25.487221  35.240666 37.851956  4
23.911781  33.603341 38.833909  4
24.694103  33.692080 40.405537  4
25.998549  32.708106 37.807821  4
25.250363  31.685751 39.011887  4
26.907562  32.118163 40.671953  4
28.312343  31.604602 38.002594  4
27.334221  30.410708 38.878848  4
28.814862  31.029563 39.603259  4
27.515354  34.384109 40.474844  4
28.107624  34.192325 38.791788  4
30.013662  32.866708 39.752334  4
29.358868  33.131062 41.383979  4
29.473155  35.654430 40.897167  4
30.184076  35.172989 39.337985  4
31.438770  34.495732 42.008650  4
33.405325  34.644205 39.916308  4
32.057652  33.707542 39.278080  4
32.825382  33.233560 40.795770  4
33.051648  36.266541 41.748274  4
31.442064  36.906148 41.969046  4
32.998341  36.792448 39.329838  4
32.843605  38.190239 40.372065  4
30.425716  38.330505 40.004971  4
30.441799  36.904301 39.019538  4
31.723491  39.482848 38.205679  4
33.157166  37.910231 37.170121  4
31.877491  38.040996 35.959305  4
31.909410  36.658195 37.059054  4
29.377840  37.856736 37.059123  4
29.947813  39.439708 36.505608  4
29.194313  39.281015 38.098399  4
50.001095  -0.019938 4.675990  1
49.361519  0.009076 5.444175  1
49.073625  0.888995 5.822130  1
49.425302  1.739906 5.431907  1
49.137402  2.619830 5.809868  1
49.489079  3.470741 5.419645  1
49.201185  4.350660 5.797600  1
49.552861  5.201571 5.407376  1
49.264962  6.081495 5.785337  1
49.616639  6.932406 5.395114  1
49.328745  7.812325 5.773069  1
49.680421  8.663236 5.382845  1
49.392522  9.543160 5.760807  1
49.744199  10.394071 5.370583  1
49.456304  11.273990 5.748538  1
49.807981  12.124901 5.358314  1
49.520082  13.004825 5.736276  1
49.871758  13.855736 5.346052  1
49.583864  14.735655 5.724007  1
49.935541  15.586565 5.333783  1
49.647642  16.466490 5.711745  1
49.999318  17.317401 5.321521  1
0.492131  44.558911 0.797063  1
0.531293  43.782412 0.168163  1
1.338759  43.192741 0.151468  1
2.107071  43.379568 0.763677  1
2.914546  42.789896 0.746986  1
3.682849  42.976725 1.359191  1
4.490324  42.387052 1.342500  1
5.258628  42.573881 1.954706  1
6.066103  41.984209 1.938015  1
6.834406  42.171038 2.550220  1
7.641881  41.581365 2.533529  1
8.410184  41.768194 3.145734  1
9.217659  41.178522 3.129043  1
9.985962  41.365351 3.741249  1
10.793437  40.775678 3.724558  1
11.561741  40.962508 4.336763  1
12.369216  40.372835 4.320072  1
47.976295  0.000810 0.001210  1
47.889119  0.997003 0.001888  1
46.982808  1.419604 0.002077  1
46.163663  0.846010 0.001588  1
45.257342  1.268610 0.001778  1
44.438207  0.695018 0.001289  1
43.531886  1.117618 0.001478  1
42.712751  0.544025 0.000990  1
41.806430  0.966625 0.001179  1
40.987295  0.393033 0.000690  1
40.080974  0.815633 0.000880  1
39.261839  0.242040 0.000391  1
38.355518  0.664640 0.000580  1
37.536383  0.091048 0.000092  1
36.630062  0.513647 0.000281  1
35.810927  -0.059945 -0.000208  1
34.904606  0.362655 -0.000018  1
17.472470  25.430348 36.705886  1
16.008955  25.130076 36.534761  1
15.614606  23.818069 36.260072  1
14.268043  23.548506 36.113950  1
13.298545  24.477848 36.225890  3
13.665420  25.741975 36.495674  1
12.668711  26.698934 36.634186  1
12.960627  28.033211 36.925508  1
14.281596  28.431431 37.068064  1
15.302475  27.491904 36.928805  1
15.015092  26.133839 36.653455  1
18.081419  24.523294 36.626522  4
17.659216  25.860714 37.695086  4
17.812252  26.125683 35.931668  4
16.337778  23.015053 36.165270  4
13.919372  22.542037 35.900935  4
11.631439  26.393212 36.519010  4
12.153958  28.752382 37.039741  4
14.520164  29.467940 37.291508  4
16.328951  27.829923 37.043487  4
48.148401  7.401235 44.672239  1
48.291493  6.949782 46.090669  1
48.083709  7.863524 47.076751  3
48.203584  7.493842 48.370395  1
48.531730  6.219174 48.801205  1
48.751006  5.258133 47.804496  1
49.099083  3.869322 47.819400  1
49.355284  2.931957 48.841562  1
49.678015  1.613020 48.501143  1
49.747655  1.221137 47.166401  1
49.497792  2.130643 46.134951  1
49.176935  3.445006 46.494138  1
48.888062  4.532758 45.705674  3
48.870910  4.515379 44.696778  4
48.625854  5.645471 46.471448  1
47.882157  8.461543 44.622894  4
47.363581  6.825732 44.171910  4
49.091017  7.257803 44.135197  4
48.020048  8.287709 49.089497  4
48.612765  5.984453 49.854906  4
49.303534  3.227491 49.885144  4
49.875920  0.888882 49.287655  4
49.999985  0.191747 46.921732  4
49.553480  1.821402 45.096377  4
3.905042  0.924238 45.426614  1
4.211672  2.324538 45.863957  1
3.250424  3.320237 45.789057  1
3.522397  4.577653 46.337545  1
2.533046  5.576358 46.326606  1
2.743995  6.809821 46.963104  1
1.763230  7.802780 47.039912  1
1.916298  8.984296 47.683429  3
3.109157  9.197830 48.270445  1
4.160428  8.296873 48.233485  1
3.979116  7.073549 47.573850  1
4.988205  6.092321 47.533875  1
4.777020  4.823061 46.934723  1
5.715976  3.765634 46.907964  1
7.082956  3.855721 47.520637  1
5.432075  2.538199 46.396350  3
2.930345  0.855046 44.933731  4
3.889883  0.267496 46.302991  4
4.669027  0.568096 44.729753  4
2.281905  3.105630 45.347676  4
1.574041  5.379909 45.855265  4
0.785690  7.663918 46.586316  4
3.204440  10.143851 48.796653  4
5.094840  8.538987 48.729821  4
5.937891  6.319103 48.007111  4
7.425177  4.878646 47.686601  4
7.815822  3.384058 46.856272  4
7.091124  3.323354 48.477464  4
1.145525  40.598844 41.483017  1
1.868252  40.212162 42.737812  1
2.750613  39.141829 42.762769  1
3.423427  38.792293 43.957040  1
4.346407  37.709523 44.071333  1
4.649249  36.908458 42.982768  2
5.008896  37.375030 45.268923  1
5.876119  36.335860 45.316786  3
6.490880  36.046131 46.478716  1
6.290398  36.752041 47.644404  1
5.401955  37.826757 47.622110  1
5.177361  38.603732 48.892653  1
4.740508  38.153604 46.408602  1
3.827991  39.226177 46.303316  1
3.160782  39.568489 45.104742  1
2.245703  40.643452 44.987554  1
1.866504  41.558250 46.119357  1
1.613896  40.956329 43.828136  3
1.409964  39.949103 40.643287  4
1.399346  41.628170 41.211233  4
0.064805  40.529745 41.641309  4
2.900087  38.593039 41.840562  4
4.166355  37.183191 42.196184  4
7.172053  35.201146 46.442253  4
6.818458  36.465469 48.547080  4
5.772535  38.205578 49.720955  4
4.125044  38.549623 49.190336  4
5.467901  39.650371 48.754588  4
3.637640  39.810900 47.196384  4
2.361588  41.344925 47.066365  4
0.787415  41.492554 46.293495  4
2.113238  42.590564 45.849810  4
18.256656  31.484925 16.972441  1
18.152329  29.951916 17.048086  1
19.320640  29.418016 17.883253  1
16.790972  29.539504 17.644067  1
15.576010  29.973454 16.942874  3
15.045664  29.718181 15.719099  1
13.854937  30.002874 15.555861  2
15.848016  29.003626 14.614023  1
15.598734  29.669158 13.232414  1
16.093315  31.122058 13.235168  1
16.284278  28.923630 12.076908  1
15.382020  27.617883 14.633617  3
15.828789  26.589513 15.414690  1
15.098550  25.612956 15.562544  2
17.182443  26.710756 16.154564  1
17.957322  25.366677 16.049221  1
18.302039  25.027581 14.595012  1
19.251108  25.375479 16.873637  1
16.840341  26.978546 17.551343  3
16.573887  28.124360 18.221036  1
16.040111  27.999655 19.330350  2
19.214458  31.789684 16.537176  4
18.185426  31.937825 17.968176  4
17.461709  31.908033 16.350097  4
18.291332  29.578691 16.036008  4
19.241155  29.731373 18.929319  4
20.276154  29.784504 17.492142  4
19.358247  28.325777 17.856008  4
16.738107  30.148569 18.563103  4
14.853707  30.333238 17.560718  4
16.908202  29.034937 14.816308  4
14.521966  29.680902 13.019223  4
17.178644  31.172375 13.376078  4
15.619748  31.706123 14.029560  4
15.853878  31.612412 12.285178  4
17.345973  28.746317 12.279755  4
16.218129  29.504468 11.148412  4
15.804993  27.958462 11.885204  4
14.419204  27.468473 14.343090  4
17.798118  27.512640 15.759197  4
17.329555  24.554221 16.440416  4
18.961334  25.784236 14.157304  4
17.404451  24.954476 13.973849  4
18.813588  24.060045 14.538255  4
19.905322  26.202687 16.579875  4
19.807285  24.441812 16.729839  4
19.042450  25.464551 17.944474  4
16.455794  26.184242 18.055550  4
4.310825  11.667743 11.586089  1
3.794944  11.516565 13.027525  1
2.825024  10.331806 13.083227  1
4.977653  11.330518 13.999716  1
5.987412  12.394747 14.062337  3
5.967045  13.699678 14.437562  1
7.058195  14.234364 14.658990  2
4.648316  14.456867 14.688898  1
4.715845  15.893633 14.101478  1
4.887083  15.846851 12.577001  1
3.469548  16.731743 14.425970  1
4.486820  14.478635 16.141916  3
3.918235  13.527096 16.940981  1
4.190731  13.536122 18.138662  2
3.028601  12.424378 16.318843  1
1.779097  12.193893 17.215336  1
0.901811  13.448082 17.292274  1
0.920529  11.020723 16.725282  1
3.856954  11.218854 16.302129  3
4.759376  10.745209 15.411247  1
5.504297  9.842424 15.812642  2
3.479852  11.814863 10.887835  4
4.860293  10.775228 11.264872  4
4.978885  12.529616 11.490465  4
3.214896  12.409943 13.247390  4
3.339665  9.383849 12.895378  4
2.034745  10.442094 12.332505  4
2.336553  10.267497 14.059139  4
5.552059  10.516665 13.524233  4
6.943809  12.051043 14.070640  4
3.810863  13.947228 14.236310  4
5.581898  16.421749 14.521076  4
4.017154  15.389358 12.093006  4
5.775169  15.276514 12.289819  4
5.005444  16.857639 12.171343  4
2.545427  16.206048 14.162479  4
3.482516  17.676393 13.868010  4
3.427738  16.988778 15.489078  4
5.165304  15.034291 16.656360  4
2.707811  12.672594 15.311931  4
2.104683  11.952526 18.236583  4
0.512100  13.720138 16.305919  4
1.455037  14.303937 17.690148  4
0.047922  13.277973 17.957832  4
0.607847  11.162551 15.685723  4
0.015705  10.922363 17.336317  4
1.461819  10.071958 16.796067  4
4.015151  10.798036 17.213669  4
26.830890  17.763138 3.200743  1
25.928534  18.908825 2.710965  1
26.465619  19.422155 1.370990  1
24.469445  18.423697 2.591465  1
23.816335  17.910650 3.802393  3
23.469752  18.457116 4.996257  1
22.658526  17.828802 5.683760  2
23.969513  19.847906 5.433857  1
24.367547  19.844376 6.935681  1
25.538038  18.882811 7.182425  1
24.763349  21.236069 7.452893  1
22.853748  20.757236 5.176943  3
22.542196  21.401020 4.012598  1
21.396652  21.820616 3.869622  2
23.593728  21.509482 2.882551  1
23.555225  22.937727 2.268776  1
23.935662  24.004867 3.300774  1
24.482419  23.073559 1.054082  1
23.188888  20.526245 1.878019  3
23.441500  19.203155 1.743866  1
22.725583  18.586483 0.944977  2
27.868058  18.100056 3.303145  4
26.822877  16.922363 2.497385  4
26.506801  17.390695 4.177740  4
26.037623  19.720579 3.426560  4
26.368406  18.666466 0.584703  4
27.524931  19.688949 1.454474  4
25.930942  20.319916 1.049605  4
24.572646  17.500580 1.995154  4
23.288472  17.055427 3.651227  4
24.830086  20.154573 4.858303  4
23.517724  19.501721 7.540167  4
26.440899  19.212198 6.656428  4
25.301441  17.868141 6.849376  4
25.772250  18.827133 8.251211  4
25.516001  21.709335 6.813114  4
25.185007  21.167733 8.463530  4
23.895783  21.900735 7.512589  4
22.028869  20.623564 5.756125  4
24.598774  21.295548 3.232557  4
22.535371  23.157149 1.923868  4
24.961236  23.863588 3.657178  4
23.266546  23.986330 4.166101  4
23.865921  25.005875 2.860151  4
25.513830  22.808770 1.308335  4
24.483726  24.104858 0.682376  4
24.155881  22.433792 0.228109  4
22.359784  20.777083 1.346337  4
20.146038  17.864763 25.889320  1
19.929719  19.088067 24.981874  1
21.287592  19.548851 24.442097  1
18.952202  18.738855 23.841224  1
17.603461  18.288903 24.208044  3
16.552682  18.865832 24.846066  1
15.453922  18.315200 24.723362  2
16.688129  20.205212 25.596578  1
15.909662  20.166348 26.940601  1
16.498747  19.101576 27.875897  1
15.915636  21.516236 27.674594  1
16.141417  21.212937 24.689156  3
16.784946  21.881678 23.686222  1
16.104706  22.404563 22.807223  2
18.331324  21.892239 23.630603  1
18.830788  23.317497 23.260116  1
18.441544  24.346024 24.327432  1
20.350894  23.366661 23.058916  1
18.689480  20.949524 22.571005  3
18.875552  19.608724 22.568391  1
18.893152  19.059750 21.459625  2
20.828056  18.105115 26.711999  4
20.581249  17.027715 25.331090  4
19.203764  17.524426 26.330412  4
19.555320  19.886947 25.617907  4
21.723912  18.804653 23.767887  4
21.993980  19.717328 25.262415  4
21.195773  20.491654 23.896354  4
19.385015  17.809688 23.431708  4
17.281320  17.485636 23.675235  4
17.721652  20.431115 25.812659  4
14.860958  19.903646 26.750271  4
17.528661  19.346260 28.158270  4
16.500018  18.112649 27.408481  4
15.906628  19.025481 28.794517  4
16.929213  21.917890 27.780039  4
15.496013  21.410280 28.682831  4
15.304765  22.257794 27.150245  4
15.141888  21.156025 24.511821  4
18.779876  21.587213 24.570895  4
18.368548  23.629353 22.313390  4
18.904843  24.111465 25.291342  4
17.357712  24.389687 24.469746  4
18.768790  25.348856 24.030334  4
20.882251  23.008498 23.946579  4
20.681675  24.393188 22.862520  4
20.660936  22.758919 22.202946  4
18.495678  21.275001 21.627858  4
7.384611  28.689877 15.707150  1
6.352431  29.281207 16.682678  1
6.126999  28.286439 17.825971  1
6.836203  30.649243 17.205185  1
7.086275  31.709575 16.220666  3
6.305584  32.392101 15.343890  1
6.772912  33.434327 14.873894  2
4.860356  31.959158 15.028570  1
4.563717  32.089944 13.509090  1
5.467697  31.150700 12.699042  1
3.100369  31.781229 13.156548  1
4.010165  32.847781 15.819355  3
3.612403  32.698117 17.118050  1
3.218355  33.691933 17.722888  2
3.746336  31.323187 17.815273  1
2.471765  31.039575 18.659736  1
1.221743  30.943919 17.778353  1
2.594731  29.750758 19.482810  1
4.908376  31.444286 18.695463  3
6.233805  31.267509 18.484839  1
6.991936  31.720425 19.351528  2
7.044955  27.723923 15.318196  4
8.350335  28.528258 16.200037  4
7.547898  29.351668 14.850621  4
5.413717  29.354373 16.138265  4
7.025264  28.173933 18.441785  4
5.860076  27.298935 17.433698  4
5.307364  28.608927 18.473538  4
7.862043  30.425726 17.545881  4
7.948738  32.222394 16.382131  4
4.685823  30.933803 15.318536  4
4.767740  33.117786 13.182086  4
5.261324  30.100479 12.933077  4
6.526237  31.341779 12.897635  4
5.308131  31.294051 11.624682  4
2.774573  30.822346 13.573902  4
2.966969  31.730129 12.068685  4
2.428230  32.562646 13.524829  4
4.014945  33.827075 15.546032  4
3.895559  30.514359 17.106810  4
2.315978  31.863576 19.369639  4
1.298744  30.112185 17.070486  4
1.057453  31.863891 17.209574  4
0.330103  30.781768 18.394563  4
2.813433  28.889093 18.843852  4
1.660219  29.542642 20.016777  4
3.385095  29.830947 20.235842  4
4.761697  32.024053 19.517275  4
14.565344  31.847262 34.132941  1
14.867303  33.355746 34.137722  1
16.235073  33.583549 34.789499  1
14.821618  33.912602 32.700227  1
13.566348  33.774107 31.951071  3
12.308492  34.260123 32.111199  1
11.557054  34.198485 31.132900  2
11.862570  34.960537 33.409708  1
10.428490  34.517933 33.811499  1
10.391862  33.013716 34.114035  1
9.890091  35.274117 35.035953  1
11.919379  36.391582 33.115259  3
12.994718  37.229387 33.209872  1
12.962428  38.288174 32.588019  2
14.244947  36.796849 34.012573  1
14.766971  37.996750 34.852701  1
13.735314  38.447810 35.892302  1
16.083139  37.673927 35.571801  1
15.241495  36.422105 33.009481  3
15.481895  35.263635 32.351810  1
16.213482  35.339622 31.356796  2
14.580986  31.443123 35.150854  4
15.307799  31.295101 33.545100  4
13.576828  31.640258 33.710736  4
14.127620  33.820685 34.785505  4
17.043124  33.163227 34.181925  4
16.276290  33.114021 35.778505  4
16.432523  34.649611 34.929746  4
15.477338  33.213856 32.152352  4
13.694925  33.466717 30.990927  4
12.527784  34.729785 34.228327  4
9.738075  34.710613 32.980103  4
11.012291  32.767638 34.982851  4
10.747623  32.424223 33.264101  4
9.367849  32.688611 34.328428  4
10.595345  35.247230 35.873615  4
8.948919  34.829149 35.382438  4
9.679844  36.321355 34.796991  4
11.245512  36.732489 32.434501  4
14.042325  35.957994 34.671098  4
14.962296  38.848461 34.186633  4
13.524959  37.651128 36.613297  4
12.792166  38.743312 35.423259  4
14.105920  39.316906 36.447597  4
15.981612  36.791587 36.211906  4
16.393142  38.513035 36.205473  4
16.893880  37.491505 34.859352  4
15.644922  37.202069 32.497697  4
6.349755  20.895226 33.614061  1
6.295019  19.773169 34.665115  1
6.951003  20.273444 35.956205  1
4.835235  19.334927 34.900790  1
4.079425  18.822039 33.751089  3
4.206096  17.740402 32.939872  1
3.223416  17.436932 32.255933  2
5.469667  16.857851 32.946542  1
5.874515  16.462059 31.499696  1
6.238877  17.707684 30.680428  1
7.060818  15.486473 31.456160  1
5.116636  15.684656 33.744540  3
5.187578  15.535700 35.101006  1
4.521977  14.645033 35.622985  2
6.020551  16.528624 35.946433  1
6.815510  15.750397 37.032936  1
7.824658  14.781679 36.407040  1
7.561090  16.688297 37.991098  1
5.044342  17.412562 36.583147  3
4.437904  18.549675 36.168922  1
3.448278  18.911025 36.817855  2
7.383684  21.205092 33.427802  4
5.793134  21.779057 33.946771  4
5.926224  20.567648 32.659291  4
6.915179  18.962415 34.289615  4
6.369875  21.080678 36.413840  4
7.959036  20.653481 35.756879  4
7.048897  19.466491 36.687224  4
4.323729  20.295919 35.083106  4
3.134272  19.189937 33.686023  4
6.304059  17.370703 33.401148  4
5.028677  15.968784 31.003455  4
7.123589  18.207915 31.089548  4
5.417921  18.430265 30.661365  4
6.455896  17.435718 29.641584  4
7.906186  15.846529 32.052397  4
7.415652  15.354522 30.426337  4
6.776380  14.496274 31.825773  4
4.415313  15.068088 33.342378  4
6.711204  17.107336 35.341058  4
6.116712  15.157234 37.638781  4
8.575892  15.317960 35.818111  4
7.333933  14.053217 35.754827  4
8.347208  14.216226 37.186934  4
8.236201  17.357923 37.448518  4
8.162558  16.113194 38.704707  4
6.865329  17.299221 38.574923  4
4.504836  16.983616 37.330114  4
13.633182  10.544522 32.646386  1
13.194676  11.429011 31.466506  1
12.215910  12.489447 31.981283  1
14.426266  12.069237 30.794296  1
15.449876  11.172398 30.242915  3
15.464640  10.250336 29.246101  1
16.572166  9.887230 28.837365  2
14.170132  9.756832 28.570634  1
14.221861  8.222399 28.332389  1
14.309512  7.470701 29.667607  1
13.004561  7.696162 27.556353  1
14.088046  10.492790 27.309901  3
13.553000  11.730783 27.090080  1
13.890226  12.337549 26.076725  2
12.618509  12.368914 28.145544  1
11.417018  13.052929 27.433766  1
10.559408  12.035816 26.673155  1
10.519922  13.819089 28.414500  1
13.431079  13.376444 28.826975  3
14.278385  13.304213 29.880176  1
15.033776  14.270527 30.043477  2
12.767225  10.072806 33.123169  4
14.154291  11.131875 33.411332  4
14.304742  9.745281 32.317004  4
12.637540  10.789058 30.786080  4
12.708864  13.193867 32.659187  4
11.387319  12.021354 32.524067  4
11.780469  13.058301 31.155488  4
14.964783  12.509027 31.651598  4
16.401375  11.453109 30.463706  4
13.303640  9.974250 29.177110  4
15.115327  7.971579 27.746023  4
13.409475  7.627855 30.272226  4
15.174200  7.793742 30.254475  4
14.417061  6.393827 29.497212  4
12.061622  8.026732 28.005098  4
12.997862  6.599042 27.544751  4
13.023453  8.026921 26.513158  4
14.799693  10.270932 26.618466  4
12.246326  11.641616 28.860321  4
11.794845  13.781693 26.703452  4
10.119797  11.300026 27.354434  4
11.143046  11.499116 25.919385  4
9.741063  12.541408 26.148069  4
10.152863  13.165782 29.212638  4
9.648568  14.236030 27.896188  4
11.053521  14.657492 28.873317  4
13.633792  14.205095 28.274468  4
6.782501  43.350952 12.270320  1
5.962307  44.147485 11.240980  1
6.924703  44.930008 10.341561  1
5.065292  43.195913 10.423396  1
4.082809  42.384339 11.152911  3
2.987272  42.669862 11.902798  1
2.203806  41.740890 12.123519  2
2.666200  44.104129 12.366845  1
2.165427  44.109656 13.837599  1
3.261064  43.599565 14.783604  1
1.720960  45.501587 14.312948  1
1.635946  44.585462 11.447762  3
1.804863  45.178306 10.228243  1
0.856068  45.182402 9.448150  2
3.188127  45.744411 9.827499  1
3.005500  47.116843 9.119570  1
2.381748  48.155975 10.057482  1
4.329173  47.672424 8.578425  1
3.749850  44.772674 8.889454  3
4.464965  43.637882 9.071759  1
4.551811  42.881802 8.096134  2
7.413409  44.018451 12.867077  4
7.439886  42.624555 11.778514  4
6.132263  42.805674 12.961794  4
5.386133  44.881018 11.800330  4
7.529139  44.259057 9.722491  4
7.606626  45.541442 10.942742  4
6.381388  45.608941 9.678987  4
5.778687  42.422227 10.090441  4
4.046569  41.415189 10.849049  4
3.536329  44.740497 12.305172  4
1.300188  43.440954 13.933598  4
4.129429  44.267599 14.783205  4
3.601492  42.599048 14.501595  4
2.884842  43.536768 15.810625  4
2.486025  46.261305 14.119849  4
1.524959  45.497439 15.392494  4
0.794462  45.813820 13.820884  4
0.732827  44.122660 11.510499  4
3.847372  45.865249 10.681422  4
2.330227  46.995517 8.261377  4
3.028783  48.351216 10.918883  4
1.405666  47.830182 10.428931  4
2.226395  49.103848 9.529817  4
5.077559  47.763305 9.372292  4
4.181251  48.667389 8.142640  4
4.738824  47.033040 7.790048  4
3.311714  44.763418 7.972409  4
15.655759  41.853191 40.509552  1
16.722577  42.938667 40.285132  1
16.924362  43.710704 41.593086  1
18.036954  42.299818 39.792328  1
17.999263  41.533109 38.540588  3
17.740100  41.846138 37.244863  1
18.091092  41.025638 36.390982  2
17.140463  43.206240 36.837298  1
16.061889  43.025847 35.733643  1
14.885904  42.190849 36.258407  1
15.514267  44.361937 35.208332  1
18.271772  43.998333 36.357143  3
19.133407  44.766535 37.088356  1
20.217791  45.057449 36.590106  2
18.769565  45.173696 38.536227  1
19.152838  46.662179 38.772033  1
18.356478  47.600476 37.858824  1
18.939698  47.093511 40.228791  1
19.576844  44.310521 39.398180  3
19.374512  43.064451 39.886799  1
20.366264  42.491195 40.354614  2
14.712676  42.296900 40.846353  4
15.975161  41.133593 41.272337  4
15.449779  41.300463 39.587415  4
16.307965  43.640501 39.565099  4
17.365019  43.075983 42.368790  4
15.968663  44.091237 41.970077  4
17.579466  44.573275 41.444918  4
18.204248  41.497133 40.531307  4
18.503088  40.651617 38.585635  4
16.680444  43.700535 37.679883  4
16.497160  42.493231 34.878145  4
14.365663  42.705205 37.073951  4
15.218364  41.216531 36.628043  4
14.159247  42.004240 35.460030  4
15.185642  45.015911 36.023260  4
14.651860  44.194939 34.550900  4
16.266111  44.897160 34.619874  4
18.705036  43.677588 35.495082  4
17.714361  45.035853 38.750547  4
20.218680  46.802800 38.545282  4
17.282832  47.535472 38.063384  4
18.518608  47.368859 36.801981  4
18.667505  48.639973 38.012901  4
17.906280  46.923492 40.547707  4
19.156247  48.161146 40.351293  4
19.603960  46.550005 40.908143  4
20.568236  44.533771 39.416147  4
15.366514  22.524870 40.691866  1
15.400900  24.061692 40.630862  1
15.406906  24.497626 39.162044  1
14.198500  24.652077 41.395223  1
14.065890  24.326728 42.820943  3
14.812945  24.584256 43.925319  1
14.263161  24.428835 45.020357  2
16.242525  25.152415 43.830201  1
17.182397  24.457038 44.853436  1
17.306245  22.959190 44.542546  1
18.592490  25.066842 44.880925  1
16.109152  26.581393 44.109579  3
15.812120  27.587203 43.233600  1
15.385618  28.645761 43.687829  2
15.933163  27.347585 41.709650  1
16.583004  28.589254 41.035819  1
18.011680  28.820564 41.539723  1
16.612361  28.471860 39.506447  1