NumberOfAtoms 3679
SpinPolarized yes
#FixSpin .true.
#TotalSpin
NumberOfSpecies 4


MD.TypeOfRun  nose
MD.FinalTimeStep 50
MD.LengthTimeStep 0.5  fs
MD.InitialTemperature 300 K
MD.TargetTemperature  300  K


%block ChemicalSpeciesLabel
1 6 C
2 8 O
3 7 N
4 1 H
%endblock ChemicalSpeciesLabel
PAO.BasisSize dzp 
 PAO.EnergyShift 0.02 Ry 
MeshCutoff          100 Ry
MaxSCFIterations    100
DM.NumberPulay       3
DM.Tolerance         1e-3
WriteDenchar	.true.
%block ProjectedDensityOfStates
-10.0 10.0 0.200 500 eV
%endblock ProjectedDensityOfStates
NetCharge 0.00

%block BandLines
1  1.000  1.000 1.000  L
20 0.00   0.00   0.00  \Gamma
25 2.00   0.000  0.00  X
30 2.00   2.00   2.00  \Gamma
%endblock BandLines


LongOutput .true.
WriteCoorXmol .true.
LatticeConstant 1 Ang
%block LatticeVectors
  30 0.0 0.0
  0.0 30 0.0
0.0 0.0 30
%endblock LatticeVectors




#UseSaveData .true.
%block kgrid_Monkhorst_Pack
1 0 0 0.0 
 0 1 0 0.0 
 0 0 1 0.0

%endblock kgrid_Monkhorst_Pack
WriteMDXmol .true.
AtomicCoordinatesFormat Ang
%block AtomicCoordinatesAndAtomicSpecies
42.166827  37.430490 9.010808  1
40.862243  37.312737 9.718045  1
39.661358  37.717098 9.272776  1
39.444457  38.418681 7.949452  1
38.418405  37.547942 10.098406  1
38.147522  36.183344 10.748991  1
36.745607  36.072875 11.380271  1
35.520553  35.963951 10.423841  1
34.241545  35.949886 11.266112  1
35.447627  37.054919 9.338555  1
34.173081  37.084376 8.473625  1
34.295474  38.236319 7.465079  1
33.114294  38.390416 6.487884  1
31.814375  38.724685 7.225565  1
33.383372  39.390591 5.327571  1
33.622623  40.875417 5.676848  1
34.931997  41.159930 6.414368  1
35.128863  42.595213 6.923443  1
33.971323  43.053337 7.815313  1
36.436819  42.650090 7.726023  1
42.776782  36.546423 9.214873  4
42.698845  38.314275 9.372701  4
42.049838  37.502467 7.929734  4
40.920613  36.849795 10.707580  4
40.329674  38.964409 7.613058  4
38.639660  39.157887 8.018925  4
39.168901  37.689224 7.177267  4
37.625765  37.767977 9.403754  4
38.354157  38.344847 10.849604  4
38.880449  36.030777 11.553291  4
38.294957  35.364603 10.035619  4
36.607014  36.899130 12.088418  4
36.748425  35.159522 11.996032  4
35.593879  34.994021 9.915470  4
34.061362  36.923030 11.730118  4
34.302967  35.196252 12.061469  4
33.373105  35.694630 10.651850  4
36.239610  36.845244 8.612097  4
35.592708  38.037191 9.787267  4
33.299897  37.262536 9.112123  4
34.036555  36.128093 7.958311  4
35.230606  38.150010 6.907823  4
34.335517  39.115644 8.105574  4
32.976715  37.409820 6.005762  4
31.319472  39.612998 6.822361  4
31.973433  38.899685 8.293557  4
31.108389  37.892342 7.129765  4
32.504891  39.357117 4.667723  4
34.218276  39.024635 4.716352  4
32.763423  41.254901 6.236108  4
33.643364  41.439735 4.734263  4
35.776259  40.853822 5.786918  4
35.001685  40.560787 7.309928  4
35.217169  43.274254 6.067081  4
33.152484  43.454893 7.209611  4
34.285814  43.842602 8.508066  4
33.570811  42.229158 8.417668  4
36.356686  42.058669 8.652572  4
36.673260  43.677252 8.006804  4
37.274881  42.251952 7.148608  4
38.376142  31.371601 13.148523  1
38.092502  30.559631 11.933516  1
37.679201  31.010374 10.737727  1
37.387457  32.465070 10.439073  1
37.416801  30.075273 9.592326  1
38.469519  29.008170 9.257900  1
38.188470  28.262402 7.938459  1
38.410392  29.032831 6.602581  1
37.991698  28.127920 5.440124  1
37.699442  30.396819 6.516177  1
37.756340  31.120294 5.157213  1
36.991777  32.446813 5.279325  1
36.978009  33.323305 4.012275  1
36.259519  32.625325 2.853700  1
36.422792  34.757454 4.244719  1
34.950085  34.914399 4.681118  1
34.640429  34.413142 6.092570  1
33.160266  34.399928 6.501098  1
32.298111  33.606747 5.514811  1
33.047315  33.764694 7.894516  1
39.232800  30.949750 13.680916  4
37.507055  31.351087 13.811359  4
38.618803  32.407013 12.910563  4
38.238094  29.482844 12.060940  4
37.097232  33.027085 11.330418  4
36.557715  32.566782 9.731872  4
38.270582  32.943031 9.996407  4
37.309330  30.736972 8.749806  4
36.429287  29.610765 9.704269  4
38.471939  28.259186 10.061875  4
39.477730  29.436798 9.230291  4
37.175979  27.841801 7.974967  4
38.864110  27.392644 7.918061  4
39.488946  29.213956 6.510399  4
36.908703  27.981068 5.421839  4
38.470552  27.143420 5.516208  4
38.297655  28.557708 4.481826  4
38.226596  31.082120 7.188052  4
36.657571  30.293761 6.818057  4
37.274233  30.501634 4.391247  4
38.795019  31.295213 4.858528  4
37.371295  33.022626 6.126001  4
35.974457  32.121433 5.489654  4
38.029439  33.459092 3.713956  4
35.475004  33.246175 2.411339  4
35.793727  31.683509 3.157922  4
36.975537  32.396278 2.056678  4
36.531977  35.299398 3.294653  4
37.068452  35.288045 4.956178  4
34.304003  34.435225 3.940864  4
34.705667  35.985160 4.648230  4
35.235851  34.978695 6.817688  4
34.944444  33.383232 6.205340  4
32.790963  35.430794 6.557500  4
31.988931  34.239387 4.676483  4
31.387991  33.225904 5.992715  4
32.837770  32.744950 5.104216  4
33.313903  32.695727 7.863967  4
32.026536  33.842004 8.271131  4
33.713544  34.253439 8.609734  4
31.298204  35.310283 2.336772  1
32.019818  34.008463 2.359741  1
31.493975  32.796271 2.600528  1
30.037845  32.560107 2.938706  1
32.342755  31.557418 2.605573  1
33.317743  31.328987 1.441107  1
33.964578  29.929835 1.448891  1
33.073549  28.711219 1.063634  1
33.899562  27.431304 1.221735  1
31.748826  28.605863 1.842985  1
30.911760  27.333112 1.613061  1
29.644809  27.420830 2.476922  1
28.667157  26.237658 2.342219  1
29.304308  24.925894 2.810205  1
27.290731  26.477228 3.025693  1
27.253215  26.667774 4.557434  1
27.887671  27.965546 5.060023  1
28.017524  28.114938 6.582775  1
28.771855  26.941126 7.213930  1
28.772810  29.418520 6.879612  1
31.714918  35.947855 1.552479  4
31.422652  35.812738 3.299650  4
30.234570  35.193640 2.130217  4
33.093720  34.079308 2.163224  4
29.569688  33.428126 3.409833  4
29.923466  31.731794 3.645646  4
29.475983  32.310005 2.029823  4
31.619665  30.759786 2.618178  4
32.869276  31.465775 3.563624  4
34.130286  32.064505 1.519497  4
32.832848  31.504385 0.474107  4
34.442472  29.763045 2.422120  4
34.790584  29.960537 0.720773  4
32.825560  28.816915 -0.000279  4
34.104425  27.218809 2.274186  4
34.858783  27.515012 0.695219  4
33.374466  26.572999 0.792494  4
31.094076  29.405923 1.482222  4
31.934710  28.718208 2.910728  4
31.489800  26.453119 1.918598  4
30.654828  27.228643 0.553941  4
29.121886  28.359590 2.282664  4
30.042830  27.431039 3.490098  4
28.448476  26.132838 1.267914  4
28.693150  24.403657 3.552065  4
30.292807  25.076675 3.253673  4
29.425406  24.247267 1.958625  4
26.665695  25.601866 2.799153  4
26.786630  27.324934 2.544181  4
27.703766  25.795475 5.038165  4
26.198747  26.672626 4.866344  4
27.352730  28.820720 4.632601  4
28.904885  28.052309 4.708448  4
27.017198  28.183424 7.026518  4
28.089258  26.111258 7.423688  4
29.241555  27.228411 8.161875  4
29.564749  26.565873 6.555888  4
29.818932  29.355217 6.538563  4
28.784345  29.621137 7.951348  4
28.309513  30.270336 6.375593  4
9.362548  1.081344 9.687531  1
10.296813  0.727430 9.643900  1
11.004329  1.242071 9.159591  1
10.777591  2.110627 8.718909  1
11.485117  2.625269 8.234597  1
11.258378  3.493825 7.793915  1
11.965895  4.008467 7.309605  1
11.739156  4.877022 6.868923  1
12.446682  5.391665 6.384611  1
12.219944  6.260220 5.943929  1
12.927460  6.774862 5.459620  1
12.700722  7.643418 5.018938  1
13.408248  8.158060 4.534625  1
13.181510  9.026616 4.093944  1
13.889026  9.541257 3.609634  1
13.662288  10.409813 3.168952  1
14.369814  10.924455 2.684640  1
14.143075  11.793011 2.243958  1
14.850592  12.307652 1.759649  1
14.623854  13.176208 1.318967  1
15.331379  13.690850 0.834654  1
15.104641  14.559406 0.393973  1
11.847632  44.436694 1.055556  1
11.321449  43.586697 1.030323  1
10.325175  43.617582 0.949860  1
9.855075  44.498470 0.894629  1
8.858792  44.529361 0.814165  1
8.388700  45.410243 0.758935  1
7.392418  45.441134 0.678472  1
6.922326  46.322017 0.623242  1
5.926043  46.352907 0.542778  1
5.455951  47.233790 0.487548  1
4.459669  47.264680 0.407084  1
3.989577  48.145563 0.351854  1
2.993294  48.176453 0.271391  1
2.523202  49.057336 0.216161  1
1.526920  49.088227 0.135697  1
1.056828  49.969109 0.080467  1
0.060545  50.000000 0.000003  1
43.232729  11.739341 4.317462  1
44.211714  11.658143 4.130391  1
44.718850  10.860830 4.457646  1
44.247002  10.144707 4.971976  1
44.754139  9.347386 5.299236  1
44.282290  8.631272 5.813561  1
44.789427  7.833950 6.140821  1
44.317578  7.117836 6.655146  1
44.824715  6.320515 6.982405  1
44.352867  5.604401 7.496730  1
44.860003  4.807079 7.823990  1
44.388155  4.090965 8.338315  1
44.895291  3.293644 8.665575  1
44.423443  2.577530 9.179900  1
44.930579  1.780208 9.507160  1
44.458731  1.064094 10.021485  1
44.965868  0.266773 10.348744  1
12.674161  27.792509 36.212869  1
13.682518  28.273085 35.206100  1
13.747224  27.644805 33.959744  1
14.669259  28.098278 33.036998  1
15.516167  29.122351 33.260950  3
15.459096  29.738024 34.453883  1
16.314257  30.808236 34.681324  1
16.313384  31.511423 35.887934  1
15.448836  31.130696 36.903543  1
14.583134  30.056038 36.703629  1
14.563074  29.350387 35.477088  1
12.053099  26.986504 35.807277  4
12.001678  28.608454 36.496779  4
13.179203  27.404808 37.103362  4
13.090841  26.819798 33.704154  4
14.751373  27.638251 32.056406  4
16.997392  31.108270 33.890140  4
16.987736  32.352344 36.026037  4
15.442208  31.668892 37.847732  4
13.917084  29.776784 37.515698  4
41.668311  7.763226 45.676059  1
41.758395  6.814600 46.828543  1
41.029901  7.091660 47.943438  3
41.084868  6.258541 49.005247  1
41.845291  5.102560 49.064583  1
42.605665  4.793902 47.928066  1
43.498708  3.728065 47.586541  1
43.957959  2.577496 48.260624  1
44.856003  1.716221 47.619252  1
45.297442  1.985769 46.326026  1
44.857069  3.118900 45.636383  1
43.959611  3.968797 46.293467  1
43.370359  5.134552 45.866705  3
43.524336  5.551022 44.960443  4
42.544880  5.657270 46.835541  1
40.992153  8.593227 45.902962  4
41.290285  7.243741 44.790222  4
42.656425  8.176074 45.450893  4
40.471349  6.557844 49.850843  4
41.847287  4.474621 49.946421  4
43.619797  2.358452 49.268963  4
45.211274  0.828729 48.137212  4
45.995364  1.304618 45.844242  4
45.203713  3.325481 44.629145  4
5.397996  1.782105 48.544037  1
4.386343  2.812485 48.142781  1
4.776261  4.098530 47.803550  1
3.826399  4.991111 47.296636  1
4.220602  6.277054 46.887609  1
3.308168  7.153357 46.278825  1
3.672717  8.411610 45.791311  1
2.830623  9.263117 45.159382  3
1.556983  8.850714 45.014942  1
1.080122  7.637698 45.483404  1
1.969471  6.763689 46.123466  1
1.565185  5.496583 46.585699  1
2.483238  4.580322 47.162109  1
2.168778  3.270329 47.592852  1
0.795570  2.673049 47.494484  1
3.104833  2.401160 48.058999  3
6.395286  2.215795 48.666838  4
5.455899  1.011609 47.767788  4
5.108173  1.312913 49.488488  4
5.818823  4.388939 47.890895  4
5.255484  6.586398 47.004958  4
4.692461  8.775772 45.881445  4
0.902734  9.540963 44.489162  4
0.038517  7.373374 45.330801  4
0.524073  5.217562 46.461127  4
0.000000  3.412222 47.386199  4
0.574643  2.106202 48.405975  4
0.755100  1.986546 46.642385  4
4.168638  43.711709 49.285603  1
3.837998  42.284506 48.969160  1
4.722700  41.256237 49.260303  1
4.392495  39.915240 48.953987  1
5.240962  38.798568 49.219488  1
6.481009  38.966308 49.813241  2
4.896388  37.468323 48.908497  1
5.742931  36.448040 49.185320  3
5.379415  35.189868 48.874166  1
4.178933  34.867485 48.280668  1
3.289241  35.899863 47.984888  1
1.974423  35.555532 47.335964  1
3.648538  37.236431 48.303375  1
2.803939  38.336400 48.037094  1
3.142424  39.673513 48.347708  1
2.301960  40.783652 48.087207  1
0.943895  40.684605 47.448866  1
2.644724  42.060778 48.391812  3
5.151777  43.807955 49.756147  4
3.420599  44.122366 49.970879  4
4.170668  44.304588 48.365670  4
5.664347  41.521206 49.726210  4
6.661229  39.893681 50.000000  4
6.107105  34.423825 49.125105  4
3.948093  33.832023 48.056332  4
1.875991  34.478048 47.168097  4
1.891225  36.047424 46.361267  4
1.141898  35.864163 47.976728  4
1.847408  38.131320 47.569443  4
0.628202  39.672180 47.198323  4
0.934817  41.267743 46.522075  4
0.192304  41.099759 48.128545  4
13.347072  2.007969 4.992038  1
12.701303  3.021911 4.032024  1
13.659505  4.202408 3.842875  1
12.362233  2.342870 2.689450  1
11.443980  1.197288 2.713372  3
10.138829  1.035691 3.051787  1
9.586245  0.000000 2.667700  2
9.342120  2.134766 3.781745  1
8.437852  1.520498 4.885779  1
9.289749  0.836010 5.963409  1
7.534934  2.560666 5.566785  1
8.549517  2.791096 2.743077  3
8.922048  3.816776 1.920628  1
8.282971  3.993401 0.886627  2
10.171973  4.664496 2.257598  1
9.870643  6.166986 1.993385  1
8.752734  6.686019 2.904113  1
11.110638  7.050414 2.182029  1
11.215868  4.199372 1.344539  3
12.105060  3.181470 1.419308  1
12.669087  2.867455 0.363698  2
13.579473  2.475737 5.954795  4
14.282856  1.611669 4.581023  4
12.678651  1.163550 5.188103  4
11.818098  3.409669 4.534531  4
14.570874  3.898210 3.317865  4
13.951641  4.623626 4.811132  4
13.187765  5.005538 3.270524  4
13.313691  1.850415 2.423749  4
11.746538  0.418523 2.134685  4
10.000403  2.853176 4.246980  4
7.781902  0.760103 4.442444  4
9.919993  1.560106 6.491428  4
9.940084  0.068499 5.533937  4
8.650714  0.342537 6.703935  4
8.104989  3.428347 5.916000  4
7.031062  2.124250 6.438282  4
6.752006  2.914024 4.888423  4
7.816783  2.227236 2.320102  4
10.491018  4.537473 3.287387  4
9.538263  6.293118 0.953758  4
9.039530  6.622847 3.958884  4
7.825489  6.121933 2.766730  4
8.529392  7.734594 2.676868  4
11.537288  6.930010 3.183048  4
10.854619  8.108446 2.052547  4
11.885807  6.814111 1.446205  4
11.091015  4.480888 0.375942  4
17.957524  1.077951 6.398716  1
18.729425  1.619784 5.183270  1
17.940855  1.291890 3.911206  1
18.962642  3.136882 5.333579  1
19.715259  3.601885 6.505526  3
20.988281  3.427213 6.944797  1
21.390871  4.206105 7.814725  2
21.933345  2.384326 6.316473  1
22.752629  1.649726 7.413312  1
21.822569  0.862552 8.346524  1
23.794470  0.680592 6.833375  1
22.801087  3.142647 5.416590  3
22.566921  3.492922 4.116707  1
23.216837  4.419192 3.638788  2
21.447483  2.787505 3.314375  1
21.950139  2.481504 1.875005  1
23.135093  1.509760 1.886749  1
20.844384  1.900222 0.984480  1
20.343218  3.745391 3.261559  3
19.323384  4.008624 4.111867  1
18.714154  5.069390 3.925693  2
17.798299  -0.002078 6.309816  4
16.973343  1.552335 6.488307  4
18.505197  1.255351 7.329767  4
19.661002  1.060995 5.129971  4
16.992682  1.838228 3.875897  4
17.716117  0.220852 3.859622  4
18.514213  1.544965 3.015462  4
17.950779  3.512423 5.564842  4
19.304664  4.413068 6.959717  4
21.383120  1.644145 5.754976  4
23.294941  2.385403 8.021336  4
21.301342  0.063866 7.807311  4
21.070093  1.511117 8.804344  4
22.393122  0.402525 9.160835  4
23.351286  -0.003611 6.101775  4
24.239894  0.070023 7.628771  4
24.613633  1.219952 6.347498  4
23.446553  3.789757 5.861976  4
21.121339  1.865242 3.784960  4
22.289300  3.413980 1.403126  4
22.849827  0.542183 2.312428  4
23.975220  1.904548 2.465696  4
23.498512  1.336567 0.867455  4
20.412359  0.995696 1.424656  4
21.242161  1.635053 -0.002031  4
20.038937  2.623706 0.823271  4
20.498631  4.541278 2.648835  4
16.645051  6.315888 6.991434  1
17.368364  6.926176 5.778548  1
16.610502  6.537906 4.504816  1
17.472207  8.456944 5.935182  1
18.182637  8.979196 7.109346  3
19.465848  8.911187 7.548436  1
19.800940  9.717790 8.421723  2
20.495912  7.954713 6.916237  1
21.374403  7.287642 8.010398  1
20.514304  6.420664 8.939978  1
22.494644  6.412654 7.426930  1
21.296358  8.787526 6.019842  3
21.033456  9.122064 4.721308  1
21.602600  10.102026 4.247470  2
19.977863  8.327664 3.915613  1
20.504743  8.071287 2.475213  1
21.767760  7.203381 2.483470  1
19.452274  7.402097 1.581842  1
18.796423  9.188767 3.866262  3
17.757891  9.361146 4.717211  1
17.060999  10.367245 4.535134  2
16.577902  5.226629 6.898034  4
15.624212  6.704818 7.082554  4
17.175657  6.535205 7.923437  4
18.343935  6.448541 5.723351  4
15.619456  7.002095 4.471348  4
16.477311  5.451902 4.448741  4
17.160425  6.842338 3.610361  4
16.432149  8.744456 6.167556  4
17.704763  9.750798 7.566689  4
20.010413  7.172902 6.351474  4
21.852395  8.064103 8.621667  4
20.062654  5.582924 8.397271  4
19.709554  7.001256 9.400137  4
21.121718  6.007270 9.752636  4
22.111072  5.696390 6.692340  4
22.990133  5.838738 8.220002  4
23.265205  7.021472 6.943618  4
21.884649  9.485148 6.468153  4
19.730988  7.379153 4.382271  4
20.763723  9.031081 2.007309  4
21.565458  6.213367 2.905054  4
22.571378  7.665530 3.064388  4
22.144620  7.065805 1.463628  4
19.098398  6.462416 2.018118  4
19.871158  7.175652 0.594419  4
18.588443  8.055405 1.423262  4
18.883896  9.997479 3.256875  4
11.019682  32.045042 13.605008  1
10.752105  33.115299 14.363793  1
9.458744  33.909698 14.240677  1
8.081812  33.322307 13.935962  1
7.930756  32.755652 12.615267  1
8.309253  33.762089 11.585205  1
8.279611  32.979256 10.207839  1
9.341958  31.494025 10.239521  1
8.990240  30.169569 10.952061  1
7.590841  29.478383 10.935570  1
6.259337  30.209545 11.294833  1
5.518753  31.142033 10.283080  1
6.204123  32.378998 9.822776  1
7.736816  32.055481 8.691250  1
9.347707  33.022719 8.510122  1
10.851477  32.655405 8.253976  1
11.806483  33.863572 8.370120  1
11.813062  33.616059 15.139316  2
11.556990  34.460284 16.280566  1
11.469401  33.622835 17.600277  1
12.703545  32.983463 18.252670  1
12.579725  35.623297 16.422075  1
12.607895  36.717406 15.439802  2
11.585998  37.635405 15.360018  1
10.456574  37.425493 15.777429  2
12.013799  38.915582 14.593624  1
11.989884  40.358313 15.204363  1
10.666512  41.065528 15.587690  1
10.860747  42.499442 16.162564  1
9.570587  43.254744 16.579570  1
8.687979  42.682095 17.695262  1
8.051644  41.261945 17.576703  1
7.062388  40.526046 16.642023  1
6.777201  40.119066 15.373038  1
7.218578  40.306212 13.912168  1
7.749243  39.102519 13.034514  1
7.977946  39.496436 11.526843  1
8.459933  38.345777 10.622843  1
8.780606  38.766348 9.169627  1
9.325504  37.664171 8.242290  1
10.713593  37.145397 8.615373  1
10.844518  36.434774 9.949572  1
10.317686  31.659713 12.897616  4
11.976171  31.540021 13.590571  4
9.667629  34.686013 13.496338  4
9.227338  34.399624 15.170166  4
7.353442  34.144581 13.933862  4
7.759374  32.572136 14.653934  4
6.910082  32.401255 12.527144  4
8.505907  31.856640 12.515863  4
9.348559  34.097788 11.617983  4
7.617635  34.617421 11.483982  4
8.274518  34.108977 9.739703  4
7.504077  33.510966 9.411048  4
10.363385  31.760740 10.488615  4
9.484980  30.982617 9.174583  4
9.285675  30.350976 11.960879  4
9.748013  29.412221 10.619032  4
7.706567  28.707846 11.714047  4
7.431227  28.922522 10.001568  4
6.375872  30.631145 12.295612  4
5.504615  29.429926 11.464772  4
4.594285  31.525494 10.757661  4
5.346579  30.665481 9.343843  4
6.330907  32.845406 10.820054  4
5.646518  33.230072 9.424086  4
7.489397  31.495827 7.753790  4
7.714529  31.091496 9.394750  4
9.820300  33.465533 9.541986  4
9.153805  34.044758 8.153038  4
10.791405  32.228548 7.285747  4
11.368032  31.984111 8.959404  4
11.588336  34.568927 7.577053  4
12.843096  33.527019 8.307906  4
11.773317  34.355060 9.344125  4
10.595721  34.945571 16.177999  4
10.732072  32.823882 17.460855  4
11.061692  34.297567 18.363190  4
13.299603  32.352106 17.589267  4
12.361804  32.334379 19.075434  4
13.357878  33.731187 18.715077  4
13.592288  35.204256 16.415139  4
12.430681  36.095825 17.398737  4
11.480481  38.911261 13.636498  4
13.070660  38.751872 14.333117  4
12.452229  41.001901 14.441427  4
12.656988  40.385845 16.072233  4
10.183694  40.450632 16.335481  4
10.005708  41.141273 14.719916  4
11.355264  43.122666 15.399503  4
11.559714  42.482490 17.009971  4
8.943471  43.447674 15.706974  4
9.900019  44.253807 16.926334  4
7.921550  43.429529 17.962391  4
9.318932  42.661814 18.606233  4
7.538804  41.192137 18.558949  4
8.868152  40.556645 17.724557  4
6.345361  40.045212 17.331806  4
5.893768  39.462531 15.358373  4
7.907414  41.145629 13.832921  4
6.294573  40.615801 13.397710  4
7.049384  38.255275 13.059187  4
8.696686  38.741442 13.452890  4
8.739935  40.285349 11.492063  4
7.061006  39.891463 11.084290  4
7.753942  37.508696 10.603415  4
9.343871  38.003484 11.127939  4
9.493851  39.599769 9.158698  4
7.853520  39.136848 8.717094  4
9.407230  38.078828 7.221573  4
8.608888  36.838366 8.154452  4
11.437412  37.963445 8.581136  4
11.019482  36.453744 7.825740  4
10.705947  37.038306 10.830151  4
11.878849  36.121463 10.095365  4
10.157150  35.589313 10.017974  4
18.870983  37.786927 13.185212  1
18.613991  39.010232 13.665091  1
17.205070  39.488620 13.989275  1
16.085376  38.624915 14.567307  1
15.596014  37.582760 13.694044  1
15.183972  38.167335 12.388021  1
14.843633  36.925191 11.464934  1
16.234672  35.746414 11.360096  1
16.640362  34.755221 12.473000  1
15.651530  33.902970 13.328691  1
14.426389  34.501199 14.088773  1
13.085746  34.852859 13.367212  1
13.096406  35.911567 12.322836  1
14.051013  35.422510 10.715444  1
15.053735  36.483975 9.519131  1
16.354064  36.283318 8.664299  1
16.839846  37.576461 7.973653  1
19.681940  39.925233 13.656003  2
19.661807  41.089576 14.507261  1
20.388084  40.814058 15.866394  1
21.913141  40.669147 15.969970  1
20.230197  42.361618 13.816282  1
19.509718  42.990337 12.698985  2
18.312270  43.639750 12.893258  1
17.580232  43.432974 13.849950  2
17.963793  44.581811 11.709910  1
17.738125  46.126068 11.849152  1
16.537298  46.712859 12.631519  1
16.486801  48.269055 12.636125  1
15.313036  48.917623 13.417487  1
15.191302  48.683535 14.928141  1
15.044433  47.245251 15.515995  1
14.047094  46.066346 15.419577  1
13.413567  45.168803 14.613134  1
13.137713  44.852100 13.134087  1
13.613792  43.502450 12.461366  1
13.071476  43.323757 10.993542  1
13.478398  42.004957 10.308907  1
13.028726  41.885447 8.834099  1
13.464810  40.611683 8.086424  1
14.970060  40.494289 7.850725  1
15.849649  40.373614 9.081162  1
18.102191  37.058410 13.044141  4
19.843992  37.468247 12.836183  4
16.836487  39.945818 13.064367  4
17.231289  40.253140 14.745812  4
15.201339  39.261790 14.707058  4
16.337642  38.164040 15.519232  4
14.796661  37.068780 14.215578  4
16.331490  36.813702 13.565482  4
15.982627  38.646092 11.816300  4
14.280642  38.802337 12.418716  4
14.292950  37.776724 10.781496  4
13.686759  36.987684 11.044476  4
17.127864  36.241742 10.994916  4
16.084248  34.897189 10.540172  4
17.247642  35.349713 13.117743  4
17.392601  34.054680 12.023463  4
16.310480  33.514039 14.120944  4
15.309018  33.016351 12.777864  4
14.801439  35.284122 14.751536  4
14.094014  33.738510 14.805797  4
12.365960  35.240548 14.114551  4
12.705373  34.034644 12.797341  4
13.464712  36.735603 12.965869  4
12.188077  36.450245 12.041825  4
13.633015  34.517588 10.205882  4
14.621978  34.807386 11.564148  4
15.740007  37.352927 10.027191  4
14.420341  37.250431 9.048995  4
16.042337  35.516675 8.002206  4
17.295624  36.018886 9.172860  4
16.107663  37.884619 7.236757  4
17.809052  37.405604 7.501264  4
17.053657  38.389875 8.669346  4
18.643230  41.345041 14.766683  4
19.950635  39.918805 16.323097  4
20.137125  41.656626 16.522614  4
22.352466  39.932990 15.292424  4
22.159750  40.337328 16.991791  4
22.427187  41.627682 15.835696  4
21.227274  42.132842 13.423309  4
20.351722  43.140897 14.576100  4
17.117919  44.131816 11.178365  4
18.815152  44.496318 11.017452  4
17.621014  46.494204 10.819199  4
18.655009  46.583912 12.234752  4
16.621657  46.361978 13.651406  4
15.593352  46.350211 12.215730  4
16.403627  48.623529 11.595621  4
17.436659  48.683460 13.000785  4
14.359124  48.665203 12.950310  4
15.422333  50.011349 13.280688  4
14.407908  49.348647 15.329824  4
16.109807  49.108590 15.379870  4
15.027051  47.475992 16.601878  4
16.026611  46.784048 15.423184  4
13.864845  45.779586 16.471092  4
12.856888  44.428351 15.207732  4
13.431746  45.693651 12.509001  4
12.038523  44.796481 13.079437  4
13.290532  42.631315 13.048614  4
14.710123  43.478197 12.438271  4
13.462235  44.147426 10.382726  4
11.980756  43.374482 10.972644  4
13.128712  41.125379 10.859877  4
14.549717  42.021017 10.384073  4
13.373412  42.751263 8.255323  4
11.932961  41.908445 8.816353  4
12.988412  40.614386 7.089669  4
13.074589  39.714744 8.582846  4
15.319150  41.338854 7.251446  4
15.128170  39.610443 7.226795  4
15.899766  41.237451 9.721587  4
16.894350  40.302680 8.776486  4
15.554356  39.522654 9.698112  4
43.075758  43.008052 20.455973  1
43.667912  42.183734 21.329277  1
44.800130  41.243837 20.937252  1
45.898339  41.552385 19.921106  1
45.453650  41.685551 18.552651  1
44.691736  40.472369 18.146601  1
44.108200  40.808156 16.712176  1
43.129473  42.350099 16.713101  1
43.723416  43.775130 16.759179  1
44.963545  44.264058 15.947172  1
46.336277  43.521139 15.931307  1
46.590474  42.253798 15.053315  1
45.801959  41.024401 15.333536  1
43.924668  41.177419 14.901654  1
42.414915  40.393099 15.719464  1
40.939327  40.840904 16.009232  1
40.154821  39.839047 16.884461  1
43.055436  42.058773 22.589071  2
43.796625  41.562402 23.722647  1
44.424448  42.733825 24.549833  1
43.576880  43.674867 25.417932  1
42.960887  40.618683 24.633440  1
42.537670  39.295699 24.150398  2
43.446349  38.282665 23.946864  1
44.640411  38.473319 23.768649  2
42.759573  36.892690 23.872454  1
43.076583  35.699733 24.837547  1
44.451786  34.987536 24.838074  1
44.556297  33.817719 25.860288  1
45.917106  33.073606 25.918469  1
47.180618  33.841783 26.324836  1
47.671700  35.081045 25.513126  1
48.145672  35.390821 24.073269  1
47.847892  35.372060 22.743508  1
46.825336  34.817426 21.738154  1
45.941598  35.764030 20.830571  1
45.095518  34.974797 19.762017  1
44.245577  35.857705 18.828413  1
43.340531  35.069797 17.852894  1
42.424874  35.907146 16.940709  1
41.320949  36.669713 17.672113  1
41.760681  37.750347 18.642207  1
43.396216  43.085039 19.439578  4
42.194928  43.593960 20.681750  4
44.308989  40.313133 20.632441  4
45.419934  41.024497 21.788874  4
46.573378  40.686988 19.875597  4
46.481205  42.437388 20.164508  4
46.328814  41.877757 17.942500  4
44.871477  42.576267 18.423795  4
43.775525  40.283846 18.711350  4
45.291713  39.550804 18.042100  4
43.936992  39.598215 16.665509  4
44.477337  39.980119 15.877228  4
42.320894  42.288375 17.433441  4
42.530674  42.539882 15.702405  4
43.894912  43.932897 17.800141  4
42.879139  44.484092 16.551158  4
45.176560  45.236907 16.417635  4
44.693182  44.499329 14.908726  4
46.671203  43.427866 16.966686  4
47.072820  44.223357 15.518167  4
47.637611  41.921834 15.195492  4
46.330989  42.410812 14.030121  4
46.127147  40.888765 16.384265  4
46.152928  40.035222 15.029318  4
43.731970  41.405099 13.822632  4
44.225594  42.295884 15.190022  4
42.442372  40.330071 16.935789  4
42.459434  39.296017 15.655424  4
40.567330  40.955252 15.023420  4
40.761437  41.744615 16.614836  4
40.026483  38.911911 16.338553  4
39.184945  40.260357 17.155651  4
40.614910  39.654250 17.856837  4
44.630987  40.960374 23.388784  4
45.011768  43.365732 23.873692  4
45.135879  42.269841 25.244175  4
42.739266  44.148683 24.900339  4
44.224539  44.492411 25.774578  4
43.202250  43.176626 26.319303  4
42.034627  41.131691 24.915917  4
43.526263  40.439227 25.554045  4
42.829004  36.554443 22.832596  4
41.690033  37.094194 24.037074  4
42.345700  34.918917 24.580296  4
42.848545  36.005298 25.864003  4
45.195278  35.734311 25.082919  4
44.676518  34.584716 23.846781  4
43.795866  33.059921 25.609877  4
44.289694  34.163195 26.868508  4
46.112017  32.562066 24.973876  4
45.791625  32.265286 26.665309  4
48.004133  33.121911 26.469883  4
47.002665  34.201166 27.358063  4
48.555498  35.375754 26.117057  4
46.982476  35.888367 25.756427  4
49.078608  35.966218 24.213553  4
48.623961  35.888441 22.158039  4
46.188622  34.077405 22.220192  4
47.444890  34.265733 21.012836  4
46.564605  36.494205 20.294903  4
45.258391  36.339140 21.467390  4
44.410774  34.304217 20.296497  4
45.741566  34.363915 19.127884  4
44.855374  36.564600 18.255742  4
43.657413  36.433047 19.518831  4
42.711043  34.358319 18.401505  4
43.990885  34.478091 17.198319  4
41.921394  35.223923 16.233464  4
43.015085  36.582057 16.308764  4
40.671545  35.967218 18.200378  4
40.689527  37.130122 16.907391  4
42.278238  37.419616 19.526302  4
40.882878  38.210302 19.097356  4
42.391268  38.493095 18.149619  4
25.217701  41.015221 2.461310  1
26.400665  41.568914 2.755973  1
26.645056  42.357684 4.035474  1
26.035827  42.044992 5.401081  1
24.604579  42.221358 5.493690  1
24.233740  43.596193 5.058362  1
22.649515  43.610234 5.028765  1
21.970774  42.276964 3.981293  1
21.908605  40.785361 4.377347  1
21.495493  40.239176 5.779969  1
22.123549  40.732731 7.121059  1
21.689897  42.069083 7.804980  1
21.938483  43.348301 7.088390  1
20.855203  43.588030 5.506240  1
21.243967  44.465432 3.880708  1
20.894042  44.229550 2.369495  1