NumberOfAtoms 204
SpinPolarized yes
#FixSpin .true.
#TotalSpin 
NumberOfSpecies 4

 
MD.TypeOfRun  nose
MD.FinalTimeStep 10
MD.LengthTimeStep 1.0  fs
MD.InitialTemperature 300 K 
MD.TargetTemperature  300  K


%block ChemicalSpeciesLabel
1  6  C
2  7  N
3  1  H
4  8  O
%endblock ChemicalSpeciesLabel

PAO.BasisSize szp 
 PAO.EnergyShift 0.02 Ry 
 
MeshCutoff          100 Ry
MaxSCFIterations    100  
DM.NumberPulay       3  
DM.Tolerance         1e-3
WriteDenchar	.true.

%block ProjectedDensityOfStates
-10.0 10.0 0.200 500 eV
%endblock ProjectedDensityOfStates
NetCharge 0.00

%block BandLines
1  1.000  1.000 1.000  L
20 0.00   0.00   0.00  \Gamma
25 2.00   0.000  0.00  X
30 2.00   2.00   2.00  \Gamma
%endblock BandLines


LongOutput .true.
WriteCoorXmol .true.
LatticeConstant 1 Ang
%block LatticeVectors
  36.83438 0.0 0.0
  0.0 29.191918 0.0
  0.0 0.0 31.963342
%endblock LatticeVectors


 

#UseSaveData .true.  
%block kgrid_Monkhorst_Pack
1 0 0 0.0 
 0 1 0 0.0 
 0 0 1 0.0 

%endblock kgrid_Monkhorst_Pack
WriteMDXmol .true.
AtomicCoordinatesFormat Ang
%block AtomicCoordinatesAndAtomicSpecies
4.167466  23.122821 19.530473  1 
3.819641  24.205520 20.530186  1 
4.013076  25.592839 19.882664  1 
2.946127  25.608456 18.743341  1 
3.362996  24.648088 17.605199  1 
4.034928  23.365187 18.102700  1 
4.655180  22.526003 17.130143  1 
5.446304  21.492513 17.625279  1 
5.410960  21.279376 19.027531  1 
4.782310  21.974944 20.038957  1 
6.135648  20.177491 19.408467  1 
6.162259  19.670187 20.670904  1 
5.593946  20.399552 21.727524  1 
4.906607  21.558039 21.348494  2 
6.229196  20.642787 16.700848  1 
6.977938  19.517430 17.206014  1 
6.866026  19.371845 18.537427  1 
4.583627  22.691779 15.799699  2 
5.274793  21.834263 14.964812  1 
6.134932  20.758442 15.336794  1 
6.773477  19.707758 14.472251  1 
7.260399  18.490215 15.086583  1 
7.379618  18.393444 16.458456  1 
7.497894  17.152537 17.181088  1 
7.604093  17.063341 18.575690  1 
7.183012  18.212861 19.213250  1 
6.861210  19.693360 13.075421  1 
7.232187  18.608795 12.321344  2 
7.494799  17.437340 12.955411  1 
7.468582  17.319134 14.330540  1 
7.619498  15.968309 15.010278  1 
7.034827  15.915552 16.422689  1 
5.506067  25.824030 19.452681  1 
6.518648  25.751376 20.619081  1 
7.988727  25.893781 20.194520  1 
8.441746  24.803987 19.231968  1 
2.509298  26.991008 18.224600  1 
1.861183  27.867214 19.296945  1 
5.604679  20.049762 23.202560  1 
6.893310  19.407921 23.784919  1 
6.794194  19.160057 25.278281  1 
7.270751  18.066931 23.193726  1 
5.464304  15.708177 16.488781  1 
4.479468  16.687608 15.806413  1 
4.355242  18.048259 16.434743  1 
7.929446  16.301947 12.060439  1 
6.769444  15.431725 11.553415  1 
7.242878  14.269768 10.647048  1 
8.182401  13.323483 11.402322  1 
6.072837  13.469844 10.018624  1 
5.203744  12.705640 11.024395  1 
4.089232  11.912453 10.357435  1 
6.759800  18.439315 20.486516  2 
6.633916  20.922054 12.240673  1 
4.452437  24.135242 21.419631  3 
2.789182  24.067740 20.877254  3 
3.766892  26.349218 20.633894  3 
2.022285  25.182961 19.166174  3 
4.060452  25.169182 16.936620  3 
2.478139  24.380095 17.014008  3 
5.037036  22.031816 13.927822  3 
7.702910  16.125385 19.109414  3 
7.136373  15.174636 14.430805  3 
8.690654  15.733738 15.058753  3 
7.461375  15.024936 16.917764  3 
5.609368  26.789656 18.946603  3 
5.806693  25.074767 18.716717  3 
6.433293  24.795596 21.147463  3 
6.286143  26.537898 21.345673  3 
8.620094  25.843580 21.092202  3 
8.159845  26.878142 19.745959  3 
8.254337  23.809210 19.649503  3 
9.513639  24.890869 19.027531  3 
7.921101  24.880931 18.273760  3 
1.755901  26.844147 17.437496  3 
3.346923  27.523799 17.765859  3 
0.934217  27.415232 19.668852  3 
1.604436  28.847656 18.881924  3 
2.522960  28.037165 20.149391  3 
4.724935  19.431236 23.415756  3 
5.449364  20.993389 23.749246  3 
7.726757  20.093720 23.589043  3 
5.949456  18.500896 25.504580  3 
6.691708  20.095814 25.825822  3 
7.707507  18.658926 25.624327  3 
6.379274  17.461209 22.973638  3 
7.959947  17.447525 23.768995  3 
7.893671  18.311728 22.339703  3 
5.161976  15.612180 17.541247  3 
5.254402  14.730712 16.032734  3 
3.469340  16.275094 15.833876  3 
4.754045  16.802057 14.752257  3 
4.393988  18.073289 17.525676  3 
3.580763  18.703225 16.033259  3 
5.199711  18.550795 16.064520  3 
8.672518  15.700993 12.597790  3 
8.466837  16.742438 11.214355  3 
6.063281  16.065382 11.002772  3 
6.214391  15.025480 12.406141  3 
7.808788  14.706854 9.812446  3 
7.757096  13.037148 12.370105  3 
9.152625  13.793007 11.587871  3 
8.370030  12.411140 10.827104  3 
6.497766  12.745229 9.309636  3 
5.447313  14.145564 9.422499  3 
4.761909  13.398474 11.746951  3 
5.818830  11.993439 11.584013  3 
3.390962  12.563756 9.823043  3 
3.524817  11.361727 11.117926  3 
4.496867  11.182507 9.651052  3 
6.783936  17.667713 21.122787  3 
7.153688  20.829410 11.286765  3 
7.046443  21.805223 12.740665  3 
5.567742  21.057566 12.039977  3 
5.427800  9.417777 18.427412  1 
6.731651  10.093905 18.838958  1 
7.368553  10.887147 17.684673  1 
8.686562  11.614213 17.985049  1 
9.839121  11.265426 17.253661  1 
9.747374  10.214139 16.373777  4 
11.069086  11.959783 17.388843  1 
12.224726  11.635747 16.643509  1 
13.412337  12.341077 16.835415  1 
13.444741  13.393085 17.746182  1 
12.329906  13.770116 18.478061  1 
12.423871  14.800039 19.324182  2 
11.345690  15.161246 20.068378  1 
11.585179  16.321009 21.015447  1 
11.352818  17.735845 20.430550  1 
9.919975  17.969867 19.946583  1 
11.702498  18.799041 21.481188  1 
10.098326  14.489000 19.984024  1 
8.957459  14.842941 20.743949  1 
7.720382  14.219236 20.556874  1 
6.476374  14.667175 21.302513  1 
5.277368  15.005771 20.375943  1 
4.012225  15.502367 21.122279  1 
2.866003  15.870446 20.164560  1 
3.486136  14.446088 22.094041  1 
7.673219  13.141270 19.677255  1 
8.768704  12.699459 18.909706  1 
10.001074  13.410012 19.070482  1 
11.128308  13.033007 18.303782  1 
4.889066  9.079062 19.319594  3 
5.618423  8.543857 17.798221  3 
4.767711  10.102523 17.883842  3 
7.430440  9.343376 19.222253  3 
6.489846  10.732963 19.687737  3 
6.663722  11.637499 17.303511  3 
7.500677  10.187059 16.850895  3 
10.525396  9.649521 16.517887  3 
12.216441  10.844025 15.903307  3 
14.304771  12.073542 16.273612  3 
14.376438  13.941238 17.890746  3 
12.640687  16.260159 21.329217  3 
11.023208  16.189692 21.941707  3 
12.025143  17.882797 19.575653  3 
9.184411  17.601729 20.665146  3 
9.749801  17.474582 18.985531  3 
9.711618  19.036320 19.809415  3 
10.998308  18.778678 22.320619  3 
11.666656  19.801986 21.040398  3 
12.711558  18.649779 21.878524  3 
9.011103  15.634454 21.479969  3 
6.709736  15.544570 21.917648  3 
6.206222  13.860910 21.994602  3 
5.006597  14.116339 19.793537  3 
5.592867  15.764390 19.647690  3 
4.268990  16.404202 21.691982  3 
2.701575  15.095185 19.408698  3 
3.056704  16.818818 19.652700  3 
1.923416  15.990834 20.715340  3 
3.257629  13.513989 21.566117  3 
2.567595  14.790026 22.582118  3 
4.209417  14.233347 22.884192  3 
6.710245  12.645992 19.588141  3 
29.060832  27.671202 2.586542  1 
27.638954  27.206094 2.496725  1 
27.337380  25.859564 2.366587  1 
26.002543  25.447209 2.430430  1 
25.687483  24.078691 2.365288  1 
24.366969  23.632188 2.532436  1 
24.018765  22.278569 2.547828  1 
22.764251  21.811270 2.751168  2 
21.802278  22.735165 2.935894  1 
22.028818  24.101324 2.912483  1 
23.336050  24.566233 2.713691  1 
23.647372  25.939433 2.721812  1 
24.982030  26.406780 2.599849  1 
25.382010  27.762100 2.660122  1 
24.424986  28.900183 2.862587  1 
26.684678  28.150321 2.624270  2 
29.768597  26.859433 2.391982  3 
29.252279  28.054464 3.594528  3 
29.245679  28.469758 1.862480  3 
28.137578  25.133258 2.261404  3 
26.480250  23.349167 2.224718  3 
24.767985  21.503610 2.410992  3 
20.806604  22.338549 3.115506  3 
21.202049  24.787036 3.068518  3 
22.834309  26.645010 2.857367  3 
23.388772  28.652213 2.626352  3 
24.703648  29.735775 2.210612  3 
24.476071  29.241008 3.901927  3 
 %endblock AtomicCoordinatesAndAtomicSpecies

