NumberOfAtoms 186
SpinPolarized yes
#FixSpin .true.
#TotalSpin 
NumberOfSpecies 4

 
MD.TypeOfRun  nose
MD.FinalTimeStep 10
MD.LengthTimeStep 1.0  fs
MD.InitialTemperature 300 K 
MD.TargetTemperature  300  K


%block ChemicalSpeciesLabel
1  6  C
2  7  N
3  1  H
4  8  O
%endblock ChemicalSpeciesLabel

PAO.BasisSize szp 
 PAO.EnergyShift 0.02 Ry 
 
MeshCutoff          100 Ry
MaxSCFIterations    100  
DM.NumberPulay       3  
DM.Tolerance         1e-3
WriteDenchar	.true.

%block ProjectedDensityOfStates
-10.0 10.0 0.200 500 eV
%endblock ProjectedDensityOfStates
NetCharge 0.00

%block BandLines
1  1.000  1.000 1.000  L
20 0.00   0.00   0.00  \Gamma
25 2.00   0.000  0.00  X
30 2.00   2.00   2.00  \Gamma
%endblock BandLines


LongOutput .true.
WriteCoorXmol .true.
LatticeConstant 1 Ang
%block LatticeVectors
  37.755152 0.0 0.0
  0.0 25.458964 0.0
  0.0 0.0 36.739641
%endblock LatticeVectors


 

#UseSaveData .true.  
%block kgrid_Monkhorst_Pack
1 0 0 0.0 
 0 1 0 0.0 
 0 0 1 0.0 

%endblock kgrid_Monkhorst_Pack
WriteMDXmol .true.
AtomicCoordinatesFormat Ang
%block AtomicCoordinatesAndAtomicSpecies
3.899935  19.882770 21.001141  1 
3.326080  20.105415 22.384531  1 
3.434657  21.598650 22.758451  1 
2.504721  22.297304 21.717403  1 
3.148464  22.257745 20.311884  1 
3.899565  20.955744 20.019525  1 
4.712491  20.912379 18.848167  1 
5.553916  19.809698 18.724718  1 
5.388040  18.772310 19.678290  1 
4.578464  18.678779 20.790870  1 
6.184024  17.685555 19.414077  1 
6.127383  16.505326 20.089107  1 
5.368669  16.411412 21.266787  1 
4.603087  17.542082 21.572830  2 
6.523343  19.731286 17.609556  1 
7.331992  18.549538 17.431241  1 
7.090808  17.607615 18.359138  1 
4.770121  21.866078 17.904864  2 
5.639942  21.724299 16.840257  1 
6.567806  20.666090 16.606027  1 
7.410348  20.390212 15.392304  1 
7.958586  19.063535 15.201863  1 
7.935815  18.139161 16.226865  1 
8.110593  16.720052 16.049049  1 
8.071616  15.787281 17.094308  1 
7.457926  16.285529 18.225820  1 
7.652607  21.246774 14.312188  1 
8.222452  20.870780 13.122044  2 
8.541852  19.563781 12.940240  1 
8.377453  18.617837 13.932108  1 
8.601390  17.139736 13.658947  1 
7.874039  16.211478 14.633024  1 
4.931044  22.074747 22.797382  1 
5.810622  21.313544 23.816205  1 
7.293627  21.716214 23.801595  1 
7.968071  21.466943 22.459070  1 
1.977119  23.695063 22.090592  1 
1.121565  23.705059 23.357731  1 
5.255436  15.222583 22.200631  1 
6.535190  14.382355 22.461235  1 
6.300134  13.260030 23.454476  1 
7.121902  13.704364 21.242086  1 
6.338554  15.978253 14.313951  1 
5.332439  17.150991 14.228900  1 
4.989553  17.826143 15.528207  1 
9.195756  19.236494 11.619519  1 
8.202448  18.846548 10.514420  1 
8.898863  18.506224 9.174655  1 
9.848507  17.313418 9.329532  1 
7.901228  18.246504 8.016614  1 
7.016696  17.007076 8.196413  1 
6.077409  16.777583 7.021172  1 
6.874420  15.665580 19.287319  2 
7.383868  22.723776 14.378541  1 
3.860819  19.510661 23.130725  3 
2.285316  19.762712 22.410025  3 
3.024784  21.721373 23.765429  3 
1.592820  21.683979 21.642674  3 
3.853257  23.094173 20.218946  3 
2.369400  22.397496 19.551733  3 
5.497534  22.517813 16.118481  3 
8.214402  14.722549 16.951666  3 
8.276128  16.867510 12.649388  3 
9.680039  16.945894 13.719712  3 
8.339534  15.214018 14.540140  3 
4.981772  23.147845 23.009767  3 
5.392217  21.949165 21.815058  3 
5.774067  20.234675 23.629941  3 
5.413632  21.475443 24.824569  3 
7.823819  21.132072 24.566221  3 
7.402919  22.769616 24.080618  3 
7.847265  20.424305 22.147060  3 
9.039678  21.682061 22.519724  3 
7.550946  22.111679 21.680946  3 
1.336064  24.053781 21.272621  3 
2.795923  24.413182 22.189541  3 
0.215130  23.102481 23.226793  3 
0.804992  24.726525 23.593987  3 
1.662363  23.322203 24.226325  3 
4.431612  14.588698 21.852089  3 
4.937097  15.620715 23.177141  3 
7.303915  15.057389 22.857106  3 
5.513948  12.586809 23.096742  3 
6.034752  13.652454 24.435047  3 
7.219637  12.669626 23.559154  3 
6.332842  13.348987 20.562999  3 
7.807891  12.874830 21.417817  3 
7.804166  14.437690 20.824884  3 
5.934554  15.244612 15.025890  3 
6.289929  15.490492 13.330488  3 
4.377466  16.791396 13.841606  3 
5.707170  17.899628 13.522603  3 
4.904764  17.169997 16.396853  3 
4.196226  18.574192 15.495926  3 
5.808713  18.465771 15.678504  3 
9.937092  18.445960 11.785425  3 
9.770964  20.116764 11.314658  3 
7.495405  19.671668 10.363883  3 
7.605264  17.988685 10.842602  3 
9.501352  19.377240 8.881061  3 
9.353490  16.480694 9.840419  3 
10.734259  17.584880 9.910881  3 
10.198439  16.958124 8.354973  3 
8.479467  18.125867 7.089585  3 
7.274181  19.134337 7.868944  3 
6.423789  17.094055 9.111955  3 
7.641505  16.113073 8.291838  3 
5.374413  17.606614 6.895254  3 
5.497173  15.863426 7.188068  3 
6.638871  16.650824 6.090229  3 
6.913688  14.666318 19.314279  3 
8.012693  23.252449 13.661764  3 
7.638238  23.114149 15.370037  3 
6.337911  22.934417 14.139851  3 
2.345788  24.975880 29.344393  1 
2.562248  25.864264 28.107201  1 
1.231180  26.005582 27.361688  1 
3.127294  27.235967 28.528775  1 
4.407796  27.258406 29.247057  2 
5.679402  26.903819 28.928715  1 
6.578586  27.334600 29.657702  4 
6.008522  26.097459 27.657096  1 
7.080016  25.012064 27.953299  1 
6.549370  23.991804 28.969677  1 
7.529542  24.255781 26.693561  1 
6.494838  27.081588 26.691278  2 
5.763080  27.852183 25.832246  1 
6.286701  28.861718 25.368097  4 
4.287568  27.492849 25.535206  1 
4.003587  27.665986 24.016172  1 
4.848241  26.705481 23.172056  1 
2.523507  27.452505 23.673522  1 
3.491347  28.451177 26.301609  2 
3.048260  28.451508 27.580691  1 
2.640009  29.534106 28.019279  4 
1.957737  23.993101 29.055807  3 
1.625398  25.427039 30.036616  3 
3.282324  24.814474 29.887643  3 
3.237332  25.323300 27.448005  3 
0.498629  26.564861 27.952739  3 
0.805189  25.021119 27.138853  3 
1.366275  26.522320 26.407815  3 
2.428774  27.547798 29.324521  3 
4.417325  27.885926 30.046448  3 
5.130369  25.605642 27.266126  3 
7.971787  25.484432 28.385305  3 
5.695257  23.436438 28.566704  3 
6.232620  24.476636 29.897611  3 
7.328710  23.267724 29.231588  3 
6.676982  23.869618 26.124523  3 
8.162542  23.400429 26.961024  3 
8.121325  24.897504 26.033260  3 
7.384261  27.521040 26.913886  3 
4.042103  26.478379 25.833512  3 
4.261723  28.690062 23.713116  3 
4.608835  25.661837 23.400698  3 
5.918879  26.856006 23.339168  3 
4.662033  26.868830 22.104501  3 
2.175711  26.468514 24.004227  3 
2.364323  27.517085 22.590824  3 
1.891246  28.215697 24.138223  3 
3.499061  29.399713 25.936589  3 
29.312855  28.948469 4.278409  1 
27.912055  28.585887 3.900890  1 
26.942321  29.526048 4.062664  2 
25.664915  29.236263 3.732808  1 
25.235673  28.021377 3.225008  1 
26.215753  27.034777 3.048449  1 
26.196394  25.686691 2.566306  1 
25.184914  24.831057 2.082667  1 
25.516374  23.532000 1.679900  1 
26.831826  23.080086 1.752810  1 
27.852455  23.908407 2.227915  1 
27.502405  25.203844 2.626441  1 
28.283839  26.218026 3.125563  2 
29.279085  26.147238 3.277032  3 
27.532096  27.339615 3.390543  1 
29.365036  29.975488 4.652687  3 
29.970282  28.865781 3.407531  3 
29.676434  28.277524 5.062727  3 
24.958176  30.045773 3.894774  3 
24.195416  27.849815 2.979286  3 
24.156381  25.173851 2.021890  3 
24.738063  22.870807 1.306807  3 
27.069786  22.067335 1.435183  3 
28.875929  23.552348 2.283501  3 
 %endblock AtomicCoordinatesAndAtomicSpecies

