NumberOfAtoms 1861
SpinPolarized yes
#FixSpin .true.
#TotalSpin 
NumberOfSpecies 4

 


%block ChemicalSpeciesLabel
1  6  c
2  1  h
3  7  n
4  8  o
%endblock ChemicalSpeciesLabel

PAO.BasisSize szp 
 PAO.EnergyShift 0.02 Ry 
 
MeshCutoff          100 Ry
MaxSCFIterations    100  
DM.NumberPulay       3  
DM.Tolerance         1e-3
WriteDenchar	.true.

%block ProjectedDensityOfStates
-10.0 10.0 0.200 500 eV
%endblock ProjectedDensityOfStates
NetCharge 0.00

%block BandLines
1  1.000  1.000 1.000  L
20 0.00   0.00   0.00  \Gamma
25 2.00   0.000  0.00  X
30 2.00   2.00   2.00  \Gamma
%endblock BandLines


LongOutput .true.
WriteCoorXmol .true.
LatticeConstant 1 Ang
%block LatticeVectors
  58.000652 0.0 0.0
  0.0 56.711901 0.0
  0.0 0.0 58.038486
%endblock LatticeVectors


 

#UseSaveData .true.  
%block kgrid_Monkhorst_Pack
1 0 0 0.0 
 0 1 0 0.0 
 0 0 1 0.0 

%endblock kgrid_Monkhorst_Pack
WriteMDXmol .true.
AtomicCoordinatesFormat Ang
%block AtomicCoordinatesAndAtomicSpecies
3.410304  27.018884 4.253796  1 
3.116090  25.605758 4.617808  1 
3.795662  24.834939 5.482630  1 
5.037752  25.286758 6.219871  1 
3.396184  23.412269 5.750279  1 
1.919544  23.104893 6.039791  1 
1.675858  21.657740 6.511436  1 
2.134228  21.271376 7.949491  1 
1.868260  19.778428 8.163603  1 
3.599338  21.617387 8.276759  1 
4.143881  21.110175 9.625702  1 
5.608828  21.552707 9.756907  1 
6.305308  21.158271 11.073410  1 
6.397440  19.637194 11.226813  1 
7.689790  21.835936 11.280912  1 
8.823767  21.512863 10.284085  1 
8.611637  22.056215 8.870186  1 
9.633638  21.617289 7.811503  1 
9.751572  20.093020 7.722604  1 
9.188709  22.169476 6.449511  1 
2.473678  27.564285 4.110504  2 
3.976726  27.043866 3.319117  2 
3.974867  27.539548 5.026949  2 
2.252313  25.173359 4.104173  2 
5.585285  26.065488 5.682865  2 
5.741677  24.459261 6.356573  2 
4.768145  25.669816 7.212285  2 
3.984517  23.145926 6.611767  2 
3.768950  22.759890 4.950947  2 
1.347349  23.246542 5.112490  2 
1.502016  23.805331 6.771934  2 
2.101527  20.965735 5.774338  2 
0.587570  21.492252 6.471105  2 
1.497359  21.825867 8.650576  2 
2.538707  19.164913 7.556250  2 
0.834417  19.521595 7.899908  2 
2.006576  19.504522 9.213605  2 
3.663204  22.706214 8.373299  2 
4.252353  21.266898 7.478023  2 
4.099981  20.015052 9.651167  2 
3.543177  21.500668 10.453551  2 
5.691193  22.630332 9.600719  2 
6.094319  21.029572 8.934910  2 
5.668145  21.533716 11.889500  2 
7.416449  19.297105 11.433119  2 
6.053473  19.105911 10.334650  2 
5.773569  19.310071 12.065957  2 
8.046277  21.534501 12.276052  2 
7.558741  22.924118 11.338038  2 
8.992737  20.432914 10.271315  2 
9.748253  21.959206 10.675818  2 
8.540034  23.148749 8.907822  2 
7.668545  21.715599 8.469666  2 
10.614044  22.042910 8.056253  2 
10.463138  19.716678 8.464669  2 
10.106235  19.774302 6.735495  2 
8.788602  19.599287 7.899891  2 
8.253383  21.691325 6.116000  2 
9.948371  21.979082 5.690256  2 
9.013531  23.247204 6.495158  2 
28.196390  35.750887 37.615143  1 
28.141675  37.037657 38.361613  1 
27.077424  37.563889 38.989583  1 
25.704951  36.926242 39.002790  1 
27.156541  38.885060 39.699131  1 
28.330857  39.136742 40.656421  1 
28.181777  40.429519 41.482608  1 
27.124526  40.447082 42.626851  1 
27.097140  41.847263 43.246709  1 
25.708792  40.008129 42.206861  1 
24.596472  40.163167 43.261444  1 
23.273917  39.678284 42.649191  1 
22.051553  39.729369 43.585706  1 
21.723181  41.165777 44.003555  1 
20.797887  38.999195 43.025129  1 
20.151348  39.536520 41.730056  1 
20.995278  39.356830 40.467189  1 
20.461588  40.023374 39.190926  1 
20.210308  41.521383 39.385956  1 
21.494888  39.826273 38.072294  1 
29.165529  35.271987 37.778506  2 
28.077267  35.944755 36.545886  2 
27.428071  35.048740 37.938042  2 
29.082411  37.595950 38.376720  2 
25.527480  36.292693 38.130032  2 
24.914692  37.684113 38.994178  2 
25.581153  36.317778 39.907640  2 
26.236144  38.924321 40.256412  2 
27.074914  39.706094 38.976135  2 
29.249185  39.234157 40.060986  2 
28.486512  38.286164 41.329669  2 
28.021850  41.272992 40.799706  2 
29.160013  40.617497 41.952824  2 
27.473436  39.749164 43.398702  2 
26.671942  42.579086 42.555031  2 
28.108249  42.177264 43.517054  2 
26.503208  41.855323 44.165317  2 
25.741016  38.927622 42.032481  2 
25.410268  40.531681 41.299102  2 
24.494772  41.219788 43.535453  2 
24.840501  39.592888 44.163605  2 
23.393196  38.669799 42.247712  2 
23.115502  40.377653 41.830143  2 
22.331548  39.177135 44.496519  2 
20.678068  41.428894 43.816176  2 
22.340818  41.903582 43.483267  2 
21.897761  41.289104 45.078125  2 
20.026772  39.043754 43.807207  2 
21.022158  37.932064 42.900593  2 
19.875429  40.584266 41.875324  2 
19.208221  38.993362 41.578915  2 
21.174574  38.289251 40.298953  2 
21.971450  39.799888 40.596204  2 
19.526680  39.535149 38.891207  2 
19.215324  41.694366 39.808688  2 
20.262891  42.064776 38.435319  2 
20.945908  41.972753 40.062472  2 
22.419786  40.386298 38.285904  2 
21.102901  40.183225 37.119018  2 
21.762472  38.772788 37.958994  2 
41.885013  37.542288 21.050149  1 
43.338175  37.863954 21.021151  1 
44.117480  37.988807 19.934416  1 
43.630544  37.774177 18.517632  1 
45.580890  38.306198 20.048016  1 
46.014590  39.458286 20.966365  1 
47.505630  39.824066 20.828212  1 
47.959535  40.562242 19.533435  1 
49.479334  40.745001 19.581273  1 
47.532346  39.883736 18.217945  1 
48.093841  40.486468 16.916070  1 
47.556624  39.670983 15.730533  1 
47.992578  40.161432 14.336529  1 
49.510015  40.061482 14.154622  1 
47.232750  39.479668 13.163098  1 
47.400517  37.957832 12.963570  1 
46.774288  37.092552 14.058316  1 
47.061012  35.585883 13.982908  1 
48.562425  35.287183 13.941100  1 
46.446611  34.912751 15.218747  1 
41.400214  38.103350 21.853543  2 
41.752192  36.473834 21.239484  2 
41.381355  37.804982 20.120144  2 
43.794313  38.000496 22.006137  2 
42.777710  37.092636 18.465067  2 
44.412396  37.331803 17.891562  2 
43.340026  38.733101 18.070002  2 
45.864732  38.539535 19.035978  2 
46.145643  37.397052 20.288829  2 
45.848914  39.152405 22.008644  2 
45.400472  40.351271 20.803846  2 
48.110413  38.922898 20.987931  2 
47.746395  40.489281 21.672548  2 
47.504311  41.560677 19.555330  2 
49.997540  39.788818 19.471941  2 
49.791042  41.197951 20.531013  2 
49.816857  41.413332 18.783731  2 
46.451454  40.024925 18.114590  2 
47.776475  38.822303 18.249745  2 
49.188271  40.422981 16.924018  2 
47.808199  41.539542 16.826035  2 
46.467460  39.609575 15.779577  2 
47.983000  38.684215 15.902414  2 
47.723712  41.228029 14.281560  2 
49.789095  39.514580 13.249297  2 
49.999709  39.564171 14.996888  2 
49.940744  41.065252 14.069131  2 
47.577895  39.961311 12.237277  2 
46.163835  39.718827 13.232382  2 
48.461662  37.727925 12.836604  2 
46.917383  37.691643 12.013266  2 
45.695333  37.278645 14.095728  2 
47.152969  37.375080 15.029211  2 
46.583921  35.170866 13.087142  2 
48.938204  35.339213 12.914114  2 
48.783141  34.283106 14.321713  2 
49.136188  36.000067 14.545340  2 
46.966338  35.226423 16.138631  2 
46.526558  33.827371 15.145507  2 
45.390478  35.171128 15.328721  2 
40.801344  37.693360 15.819106  1 
41.753444  37.461392 16.018370  1 
41.972828  36.600168 16.476796  1 
41.240119  35.970905 16.735961  1 
41.459510  35.109675 17.194391  1 
40.726802  34.480412 17.453557  1 
40.946186  33.619188 17.911982  1 
40.213478  32.989925 18.171148  1 
40.432869  32.128694 18.629578  1 
39.700161  31.499432 18.888744  1 
39.919545  30.638207 19.347169  1 
39.186837  30.008945 19.606335  1 
39.406228  29.147714 20.064765  1 
38.673520  28.518451 20.323930  1 
38.892904  27.657227 20.782356  1 
38.160196  27.027964 21.041522  1 
38.379587  26.166734 21.499951  1 
37.646878  25.537471 21.759117  1 
37.866263  24.676247 22.217543  1 
37.133554  24.046984 22.476709  1 
37.352945  23.185754 22.935138  1 
36.620237  22.556491 23.194304  1 
32.423923  34.029600 45.359038  1 
32.282620  34.653368 44.590302  1 
32.038084  34.291100 43.690883  1 
31.934849  33.305067 43.560190  1 
31.690311  32.942801 42.660761  1 
31.587076  31.956767 42.530068  1 
31.342541  31.594500 41.630649  1 
31.239306  30.608467 41.499956  1 
30.994768  30.246201 40.600527  1 
30.891533  29.260167 40.469834  1 
30.646997  28.897900 39.570414  1 
30.543762  27.911866 39.439722  1 
30.299224  27.549601 38.540293  1 
30.195990  26.563567 38.409600  1 
29.951454  26.201300 37.510180  1 
29.848219  25.215266 37.379488  1 
29.603681  24.853000 36.480059  1 
29.500446  23.866967 36.349366  1 
29.255911  23.504700 35.449946  1 
29.152676  22.518666 35.319254  1 
28.908138  22.156400 34.419825  1 
28.804903  21.170367 34.289132  1 
11.282872  42.655215 8.938643  1 
12.144487  42.332847 9.330698  1 
12.515231  41.444259 9.060606  1 
12.024367  40.878031 8.398459  1 
12.395119  39.989435 8.128367  1 
11.904255  39.423207 7.466220  1 
12.274999  38.534618 7.196128  1 
11.784136  37.968390 6.533981  1 
12.154887  37.079795 6.263889  1 
11.664023  36.513567 5.601742  1 
12.034767  35.624978 5.331650  1 
11.543904  35.058750 4.669503  1 
11.914655  34.170154 4.399411  1 
11.423791  33.603926 3.737264  1 
11.794535  32.715338 3.467171  1 
11.303672  32.149109 2.805024  1 
11.674423  31.260514 2.534933  1 
11.183559  30.694286 1.872786  1 
11.554303  29.805697 1.602693  1 
11.063440  29.239469 0.940546  1 
11.434191  28.350874 0.670455  1 
10.943328  27.784645 0.008308  1 
23.476941  16.474505 7.532914  1 
22.621590  16.070590 7.857312  1 
21.833804  16.655646 8.049909  1 
21.901360  17.644618 7.918111  1 
21.113565  18.229675 8.110711  1 
21.181121  19.218647 7.978913  1 
20.393335  19.803703 8.171511  1 
20.460892  20.792675 8.039713  1 
19.673097  21.377732 8.232313  1 
19.740653  22.366704 8.100515  1 
18.952867  22.951760 8.293112  1 
19.020424  23.940732 8.161314  1 
18.232628  24.525789 8.353914  1 
18.300185  25.514761 8.222117  1 
17.512399  26.099816 8.414714  1 
17.579955  27.088788 8.282916  1 
16.792160  27.673845 8.475516  1 
16.859717  28.662817 8.343718  1 
16.071931  29.247873 8.536315  1 
16.139487  30.236845 8.404517  1 
15.351692  30.821902 8.597117  1 
15.419248  31.810874 8.465320  1 
41.287302  25.280434 16.351397  1 
40.502302  25.343391 16.967691  1 
40.236761  24.554149 17.521385  1 
40.756215  23.701946 17.458790  1 
40.490668  22.912700 18.012490  1 
41.010122  22.060497 17.949895  1 
40.744582  21.271255 18.503589  1 
41.264035  20.419053 18.440994  1 
40.998489  19.629807 18.994694  1 
41.517942  18.777604 18.932099  1 
41.252402  17.988362 19.485793  1 
41.771855  17.136159 19.423198  1 
41.506309  16.346913 19.976898  1 
42.025762  15.494710 19.914303  1 
41.760222  14.705468 20.467997  1 
42.279676  13.853265 20.405402  1 
42.014129  13.064019 20.959102  1 
42.533583  12.211816 20.896507  1 
42.268042  11.422574 21.450201  1 
42.787496  10.570371 21.387606  1 
42.521949  9.781125 21.941306  1 
43.041403  8.928922 21.878711  1 
27.581160  25.895048 14.230114  1 
26.996581  25.279239 14.758370  1 
27.108898  24.289083 14.674908  1 
27.805791  23.914726 14.063192  1 
27.918105  22.924560 13.979732  1 
28.614998  22.550203 13.368016  1 
28.727315  21.560047 13.284554  1 
29.424209  21.185690 12.672838  1 
29.536523  20.195524 12.589378  1 
30.233416  19.821167 11.977662  1 
30.345733  18.831011 11.894200  1 
31.042626  18.456654 11.282484  1 
31.154940  17.466488 11.199024  1 
31.851834  17.092132 10.587308  1 
31.964151  16.101975 10.503845  1 
32.661044  15.727618 9.892130  1 
32.773358  14.737453 9.808670  1 
33.470252  14.363096 9.196954  1 
33.582568  13.372939 9.113491  1 
34.279462  12.998582 8.501775  1 
34.391776  12.008417 8.418316  1 
35.088669  11.634060 7.806600  1 
32.251243  0.173977 31.252694  1 
31.419494  0.000614 30.725297  1 
30.850547  0.765449 30.423110  1 
31.113341  1.703651 30.648314  1 
30.544386  2.468489 30.346122  1 
30.807180  3.406691 30.571326  1 
30.238233  4.171526 30.269139  1 
30.501027  5.109728 30.494343  1 
29.932072  5.874566 30.192151  1 
30.194866  6.812768 30.417355  1 
29.625919  7.577603 30.115168  1 
29.888713  8.515805 30.340372  1 
29.319758  9.280643 30.038180  1 
29.582551  10.218845 30.263384  1 
29.013605  10.983680 29.961196  1 
29.276398  11.921882 30.186401  1 
28.707443  12.686721 29.884208  1 
28.970237  13.624922 30.109413  1 
28.401290  14.389757 29.807225  1 
28.664084  15.327959 30.032430  1 
28.095129  16.092798 29.730237  1 
28.357923  17.030999 29.955442  1 
0.759119  13.564012 13.615154  1 
0.056214  12.990243 13.194780  1 
0.002459  12.914127 12.199136  1 
0.651614  13.411781 11.623856  1 
0.597863  13.335667 10.628203  1 
1.247014  13.833319 10.052932  1 
1.193263  13.757204 9.057279  1 
1.842414  14.254856 8.482008  1 
1.788664  14.178742 7.486355  1 
2.437815  14.676394 6.911085  1 
2.384064  14.600280 5.915431  1 
3.033215  15.097932 5.340161  1 
2.979464  15.021818 4.344507  1 
3.628615  15.519470 3.769237  1 
3.574864  15.443355 2.773584  1 
4.224015  15.941007 2.198313  1 
4.170265  15.864893 1.202660  1 
20.033354  35.434553 26.893713  1 
19.239786  36.024111 26.743138  1 
18.677223  35.905985 25.924872  1 
18.908226  35.198297 25.257172  1 
18.345661  35.080166 24.438897  1 
18.576666  34.372483 23.771205  1 
18.014101  34.254353 22.952930  1 
18.245106  33.546669 22.285239  1 
17.682542  33.428539 21.466963  1 
17.913546  32.720856 20.799272  1 
17.350982  32.602725 19.980997  1 
17.581986  31.895042 19.313305  1 
17.019422  31.776911 18.495030  1 
17.250427  31.069228 17.827339  1 
16.687862  30.951097 17.009063  1 
16.918867  30.243414 16.341372  1 
16.356302  30.125284 15.523097  1 
12.245897  25.557301 10.043552  1 
12.289887  26.556274 10.054414  1 
12.907090  27.022719 10.688039  1 
13.480309  26.490191 11.310808  1 
14.097519  26.956636 11.944440  1 
14.670731  26.424109 12.567202  1 
15.287941  26.890554 13.200834  1 
15.861154  26.358026 13.823596  1 
16.478363  26.824471 14.457228  1 
17.051576  26.291944 15.079990  1 
17.668785  26.758389 15.713622  1 
18.241998  26.225861 16.336384  1 
18.859207  26.692306 16.970016  1 
19.432420  26.159779 17.592778  1 
20.049629  26.626224 18.226409  1 
20.622842  26.093696 18.849172  1 
21.240051  26.560141 19.482803  1 
23.063568  13.553347 7.098533  1 
23.841679  13.275974 6.534965  1 
24.200542  13.896584 5.837791  1 
23.781295  14.794574 5.704180  1 
24.140158  15.415192 5.007000  1 
23.720911  16.313174 4.873394  1 
24.079773  16.933792 4.176215  1 
23.660526  17.831774 4.042608  1 
24.019389  18.452392 3.345429  1 
23.600142  19.350374 3.211822  1 
23.959005  19.970992 2.514643  1 
23.539758  20.868974 2.381036  1 
23.898621  21.489592 1.683857  1 
23.479374  22.387574 1.550250  1 
23.838237  23.008192 0.853071  1 
23.418989  23.906174 0.719465  1 
23.777852  24.526792 0.022285  1 
15.186651  24.470101 20.520662  1 
14.682189  23.681764 20.872859  1 
14.900831  22.762001 20.546942  1 
15.623940  22.630569 19.868822  1 
15.842588  21.710800 19.542899  1 
16.565692  21.579374 18.864785  1 
16.784339  20.659604 18.538862  1 
17.507443  20.528179 17.860748  1 
17.726090  19.608409 17.534825  1 
18.449194  19.476983 16.856710  1 
18.667841  18.557214 16.530787  1 
19.390945  18.425788 15.852673  1 
19.609593  17.506019 15.526750  1 
20.332697  17.374593 14.848636  1 
20.551344  16.454824 14.522713  1 
21.274448  16.323398 13.844599  1 
21.493095  15.403629 13.518676  1 
0.018270  25.140674 8.910399  1 
0.952949  24.830106 8.737417  1 
1.721921  25.283308 9.188282  1 
1.556218  26.047087 9.812136  1 
2.325194  26.500296 10.263007  1 
2.159487  27.264068 10.886855  1 
2.928463  27.717277 11.337726  1 
2.762757  28.481049 11.961574  1 
3.531732  28.934258 12.412445  1 
3.366026  29.698030 13.036292  1 
4.135002  30.151239 13.487164  1 
3.969295  30.915011 14.111011  1 
4.738271  31.368220 14.561883  1 
4.572564  32.131992 15.185730  1 
5.341540  32.585201 15.636602  1 
5.175833  33.348973 16.260449  1 
5.944809  33.802182 16.711321  1 
9.315683  36.665562 21.063012  1 
10.283112  36.863194 20.904826  1 
10.974536  36.169182 21.105503  1 
10.698533  35.277528 21.464368  1 
11.389959  34.583507 21.665047  1 
11.113954  33.691863 22.023909  1 
11.805380  32.997841 22.224589  1 
11.529375  32.106197 22.583451  1 
12.220801  31.412176 22.784130  1 
11.944796  30.520531 23.142992  1 
12.636222  29.826510 23.343672  1 
12.360217  28.934865 23.702534  1 
13.051643  28.240844 23.903213  1 
12.775638  27.349199 24.262075  1 
13.467064  26.655178 24.462755  1 
13.191059  25.763534 24.821617  1 
13.882485  25.069512 25.022296  1 
8.431027  12.165460 35.292561  1 
9.353512  12.551493 35.292739  1 
9.480442  13.543399 35.293950  1 
8.684884  14.149281 35.294984  1 
8.811811  15.141197 35.296195  1 
8.016256  15.747070 35.297228  1 
8.143183  16.738986 35.298439  1 
7.347628  17.344859 35.299473  1 
7.474555  18.336774 35.300684  1 
6.679000  18.942648 35.301717  1 
6.805927  19.934563 35.302928  1 
6.010373  20.540436 35.303962  1 
6.137299  21.532352 35.305173  1 
5.341745  22.138225 35.306207  1 
5.468671  23.130141 35.307418  1 
4.673117  23.736014 35.308451  1 
4.800043  24.727929 35.309662  1 
9.119983  9.013227 28.071517  1 
8.898573  9.973130 27.899578  1 
9.544677  10.689982 28.161616  1 
10.412199  10.446934 28.595599  1 
11.058311  11.163788 28.857641  1 
11.925825  10.920737 29.291619  1 
12.571937  11.637591 29.553662  1 
13.439451  11.394540 29.987640  1 
14.085563  12.111394 30.249682  1 
14.953076  11.868343 30.683660  1 
15.599189  12.585197 30.945703  1 
16.466702  12.342146 31.379681  1 
17.112815  13.059000 31.641723  1 
17.980328  12.815949 32.075701  1 
18.626441  13.532803 32.337744  1 
19.493954  13.289752 32.771722  1 
20.140066  14.006606 33.033765  1 
18.895149  43.131107 33.002223  1 
19.820102  42.910548 33.311767  1 
20.080821  43.072629 34.263474  1 
19.416586  43.455271 34.905645  1 
19.677303  43.617355 35.857361  1 
19.013070  43.999995 36.499524  1 
19.273788  44.162079 37.451240  1 
18.609555  44.544718 38.093403  1 
18.870272  44.706802 39.045119  1 
18.206039  45.089441 39.687281  1 
18.466756  45.251525 40.638997  1 
17.802524  45.634164 41.281160  1 
18.063241  45.796248 42.232876  1 
17.399008  46.178887 42.875038  1 
17.659725  46.340971 43.826754  1 
16.995493  46.723611 44.468917  1 
17.256210  46.885695 45.420633  1 
10.807099  26.331251 43.138761  1 
11.041520  25.361592 43.208100  1 
11.994591  25.070430 43.125209  1 
12.713251  25.748929 42.972977  1 
13.666331  25.457770 42.890084  1 
14.384981  26.136267 42.737853  1 
15.338062  25.845107 42.654960  1 
16.056712  26.523604 42.502729  1 
17.009793  26.232445 42.419836  1 
17.728443  26.910942 42.267605  1 
18.681523  26.619782 42.184712  1 
19.400174  27.298279 42.032481  1 
20.353254  27.007120 41.949588  1 
21.071904  27.685617 41.797357  1 
22.024985  27.394457 41.714464  1 
22.743635  28.072955 41.562233  1 
23.696716  27.781795 41.479340  1 
12.639315  30.345894 37.602238  1 
12.701579  29.355065 37.722160  1 
12.437651  28.939183 38.592433  1 
12.111457  29.514130 39.342793  1 
11.847527  29.098249 40.213076  1 
11.521336  29.673195 40.963427  1 
11.257406  29.257314 41.833709  1 
10.931215  29.832260 42.584060  1 
10.667284  29.416378 43.454342  1 
10.341094  29.991325 44.204694  1 
10.077163  29.575443 45.074976  1 
9.750973  30.150390 45.825327  1 
9.487042  29.734508 46.695609  1 
9.160851  30.309455 47.445960  1 
8.896921  29.893573 48.316243  1 
8.570730  30.468520 49.066594  1 
8.306800  30.052638 49.936876  1 
24.663394  40.218576 49.232922  1 
24.324443  39.484095 49.820842  1 
23.457246  39.033641 49.608590  1 
22.928992  39.317667 48.808412  1 
22.061787  38.867212 48.596155  1 
21.533540  39.151238 47.795983  1 
20.666335  38.700783 47.583725  1 
20.138088  38.984810 46.783553  1 
19.270883  38.534354 46.571296  1 
18.742637  38.818381 45.771124  1 
17.875432  38.367926 45.558866  1 
17.347185  38.651953 44.758694  1 
16.479980  38.201497 44.546437  1 
15.951734  38.485524 43.746265  1 
15.084529  38.035069 43.534007  1 
14.556282  38.319095 42.733835  1 
13.689077  37.868640 42.521578  1 
19.015445  45.149162 30.450344  1 
19.050092  46.051158 30.019992  1 
19.923048  46.531534 29.935275  1 
20.761368  46.109914 30.280913  1 
21.634334  46.590290 30.196198  1 
22.472644  46.168670 30.541834  1 
23.345610  46.649047 30.457119  1 
24.183920  46.227427 30.802755  1 
25.056886  46.707803 30.718040  1 
25.895196  46.286183 31.063676  1 
26.768162  46.766559 30.978961  1 
27.606471  46.344939 31.324596  1 
28.479438  46.825315 31.239881  1 
29.317747  46.403695 31.585517  1 
30.190714  46.884071 31.500802  1 
31.029023  46.462451 31.846438  1 
31.901989  46.942828 31.761723  1 
5.299441  2.592811 8.846863  1 
5.504949  1.860243 10.143949  1 
4.419781  1.203332 10.729786  1 
4.618775  0.524590 11.915939  1 
5.805965  0.449107 12.549196  3 
6.858106  1.072093 11.992162  1 
8.088504  0.978488 12.629142  1 
9.235685  1.585548 12.113552  1 
9.155039  2.319678 10.939495  1 
7.930648  2.434254 10.282200  1 
6.767257  1.805891 10.786612  1 
4.272860  2.483028 8.480878  2 
5.963662  2.191948 8.074384  2 
5.491101  3.662534 8.978450  2 
3.435828  1.212149 10.273103  2 
3.802064  0.000128 12.403638  2 
8.156635  0.407870 13.552407  2 
10.184766  1.480255 12.632329  2 
10.040918  2.798980 10.531232  2 
7.893944  3.016388 9.365230  2 
3.008089  43.407565 1.199106  1 
2.444841  44.691141 1.720077  1 
1.479198  45.309568 0.988271  3 
0.945756  46.470781 1.425959  1 
1.306625  47.114429 2.597944  1 
2.300094  46.497627 3.371045  1 
2.941544  46.820017 4.609908  1 
2.821784  47.881502 5.530785  1 
3.624292  47.891815 6.677742  1 
4.536135  46.866125 6.915355  1 
4.673651  45.802864 6.018646  1 
3.863294  45.809409 4.877246  1 
3.785151  44.909259 3.841896  3 
4.343993  44.071751 3.773015  2 
2.846775  45.299602 2.914331  1 
2.539330  43.129942 0.250019  2 
2.833495  42.601207 1.917980  2 
4.085116  43.509180 1.034182  2 
0.181854  46.893266 0.778673  2 
0.841085  48.045456 2.895280  2 
2.113914  48.685861 5.354691  2 
3.533525  48.709253 7.388867  2 
5.150995  46.891703 7.812277  2 
5.385510  45.005966 6.207266  2 
43.788175  8.818513 1.285978  1 
43.567594  7.962174 2.496003  1 
42.995855  6.704613 2.383409  1 
42.936441  5.875876 3.508383  1 
42.418680  4.573910 3.393680  1 
42.444811  3.687142 4.481807  1 
42.008369  2.362232 4.392931  1 
42.060607  1.467449 5.407898  3 
42.559723  1.913614 6.576195  1 
42.994607  3.211941 6.784714  1 
42.945079  4.120616 5.718706  1 
43.410790  5.443382 5.845467  1 
43.434013  6.339223 4.744772  1 
43.941511  7.659066 4.775904  1 
44.529407  8.291959 6.003073  1 
44.019614  8.446904 3.670392  3 
43.321267  8.391118 0.393182  2 
44.863461  8.907108 1.097592  2 
43.372837  9.817396 1.446763  2 
42.640536  6.355865 1.418512  2 
42.029071  4.230930 2.439210  2 
41.607602  1.963229 3.465139  2 
42.609674  1.174833 7.371580  2 
43.384511  3.499827 7.755895  2 
43.787905  5.759903 6.812361  2 
44.238527  7.802399 6.934068  2 
44.193048  9.332260 6.077739  2 
45.621954  8.286511 5.930199  2 
2.212617  41.350299 37.426898  1 
2.397819  41.804239 38.843234  1 
2.108831  43.105305 39.228605  1 
2.290151  43.514883 40.570435  1 
2.017327  44.830444 41.052316  1 
1.542462  45.819034 40.206393  4 
2.202862  45.222002 42.392935  1 
1.925499  46.485906 42.792757  3 
2.114757  46.823639 44.081972  1 
2.581638  45.949617 45.038757  1 
2.875110  44.641994 44.652960  1 
3.385989  43.680189 45.693318  1 
2.683803  44.259924 43.298572  1 
2.956533  42.956365 42.828959  1 
2.771355  42.556017 41.485696  1 
3.039409  41.250858 41.004703  1 
3.553657  40.124319 41.857982  1 
2.856283  40.885318 39.710806  3 
1.833709  42.153283 36.787459  2 
1.498421  40.521675 37.393576  2 
3.169449  41.010832 37.018216  2 
1.743107  43.784568 38.467799  2 
1.437983  45.493942 39.305960  2 
1.871347  47.852495 44.330026  2 
2.711541  46.286841 46.061108  2 
3.467802  44.154075 46.676974  2 
4.382951  43.319080 45.420218  2 
2.701721  42.831446 45.795008  2 
3.327022  42.233051 43.546776  2 
3.704181  40.376337 42.907396  2 
4.515685  39.780252 41.464037  2 
2.845049  39.290128 41.823263  2 
6.689878  44.535707 36.737408  1 
7.678281  44.431156 35.563163  1 
7.226974  43.296912 34.637250  1 
7.761546  45.777559 34.815610  1 
8.190998  46.958193 35.575737  3 
9.339060  47.311573 36.209087  1 
9.475208  48.505704 36.493765  4 
10.475023  46.301742 36.464782  1 
11.072403  46.490803 37.886511  1 
10.012557  46.208538 38.960100  1 
12.285974  45.586106 38.150607  1 
11.468816  46.567735 35.425820  3 
11.513490  46.068228 34.154710  1 
12.187298  46.665675 33.319358  4 
10.660649  44.833316 33.777687  1 
11.499640  43.870444 32.890525  1 
12.717091  43.325893 33.645390  1 
10.671341  42.687814 32.371944  1 
9.531921  45.359048 33.010019  3 
8.328536  45.854889 33.382016  1 
7.703531  46.482932 32.518316  4 
6.633068  43.588748 37.284911  2 
5.679857  44.777401 36.386518  2 
6.996048  45.310018 37.448023  2 
8.634986  44.132190 35.985367  2 
6.275304  43.532577 34.149858  2 
7.097384  42.365666 35.199633  2 
7.970244  43.103463 33.859257  2 
6.699353  46.014809 34.631651  2 
7.630362  47.786569 35.395804  2 
10.122258  45.284718 36.380440  2 
11.407171  47.529013 38.009259  2 
9.687048  45.162787 38.932258  2 
9.130829  46.842785 38.830710  2 
10.413342  46.410087 39.959604  2 
12.072003  44.538341 37.913563  2 
12.580393  45.632164 39.206565  2 
13.153667  45.901370 37.562618  2 
11.947264  47.462773 35.486970  2 
10.302574  44.297235 34.651064  2 
11.869917  44.416487 32.011923  2 
12.412217  42.735939 34.515902  2 
13.372096  44.131615 33.989819  2 
13.315348  42.680351 32.992402  2 
10.216147  42.128380 33.195593  2 
11.302059  41.993676 31.804395  2 
9.874316  43.021770 31.700090  2 
9.765793  45.680535 32.074621  2 
36.030365  2.997668 20.634372  1 
36.717028  4.271599 20.112531  1 
35.932641  4.796359 18.905524  1 
36.807676  5.325603 21.234773  1 
37.540730  4.966068 22.455217  3 
38.834957  4.657899 22.727366  1 
39.182306  4.701104 23.911852  4 
39.859823  4.376756 21.611051  1 
40.772119  3.177023 21.988244  1 
39.944649  1.892147 22.129407  1 
41.887415  2.927541 20.961185  1 
40.628851  5.612634 21.473138  3 
40.330620  6.710784 20.716602  1 
40.877116  7.774624 20.996531  4 
39.264545  6.614833 19.599120  1 
39.758905  7.379793 18.338751  1 
41.031297  6.750749 17.760944  1 
38.692421  7.435880 17.237349  1 
38.072771  7.267710 20.140564  3 
37.053482  6.813819 20.906989  1 
36.341232  7.674972 21.438180  4 
35.973045  2.235976 19.849351  2 
35.007805  3.206221 20.969864  2 
36.581108  2.564262 21.475273  2 
37.696199  3.971474 19.746376  2 
34.935984  5.144163 19.196163  2 
35.810177  4.011011 18.151521  2 
36.457146  5.626422 18.424864  2 
35.770477  5.364500 21.610389  2 
37.065636  5.236052 23.312126  2 
39.369380  4.146072 20.677164  2 
41.256252  3.372966 22.953769  2 
39.489202  1.605638 21.175044  2 
39.144985  2.008274 22.866636  2 
40.576277  1.061852 22.463946  2 
41.493988  2.860237 19.941151  2 
42.408461  1.986328 21.176783  2 
42.639142  3.722652 20.987989  2 
41.220139  5.858778 22.262782  2 
39.039679  5.587286 19.330845  2 
39.995716  8.416962 18.613361  2 
40.850347  5.722580 17.430928  2 
41.843686  6.737552 18.493543  2 
41.384643  7.325592 16.897386  2 
38.359752  6.432321 16.953153  2 
39.089554  7.923458 16.339407  2 
37.817780  8.011513 17.556429  2 
38.136360  8.279634 20.211180  2 
17.727385  11.264704 36.106798  1 
17.065409  9.883192 35.965607  1 
15.890872  9.995929 34.988235  1 
18.100915  8.842145 35.493887  1 
19.281398  8.618410 36.337996  3 
19.470789  8.142808 37.595768  1 
20.618109  7.797348 37.895502  4 
18.298951  7.932464 38.574594  1 
18.685088  8.396469 40.006208  1 
18.980440  9.902440 40.025090  1 
17.592632  8.101462 41.045674  1 
18.014873  6.498775 38.533919  3 
17.209862  5.823633 37.660214  1 
17.370908  4.611862 37.540007  4 
16.189853  6.597456 36.791151  1 
14.844112  5.819497 36.748170  1 
14.212332  5.709354 38.140026  1 
13.829556  6.465311 35.795690  1 
16.777421  6.647563 35.452499  3 
17.651986  7.502471 34.872288  1 
18.176837  7.119158 33.819364  4 
17.004251  12.009934 36.455264  2 
18.127621  11.613602 35.147756  2 
18.550041  11.240303 36.828542  2 
16.644490  9.637279 36.937860  2 
16.234769  10.219335 33.973056  2 
15.205396  10.793165 35.296172  2 
15.313573  9.068097 34.956650  2 
18.554008  9.336200 34.616962  2 
20.152441  8.565132 35.817090  2 
17.425219  8.486454 38.265433  2 
19.593198  7.871625 40.330079  2 
18.087452  10.485944 39.775246  2 
19.768917  10.166125 39.314295  2 
19.320738  10.215951 41.018150  2 
16.614178  8.475355 40.725339  2 
17.831137  8.579617 42.003973  2 
17.504371  7.027458 41.237353  2 
18.736092  5.891676 38.914733  2 
16.012357  7.602736 37.160335  2 
15.026292  4.799059 36.383853  2 
13.970000  6.697521 38.544485  2 
14.877317  5.203636 38.846350  2 
13.285594  5.126129 38.094927  2 
13.643112  7.510920 36.061222  2 
12.871220  5.934407 35.834131  2 
14.176215  6.429700 34.758038  2 
16.772240  5.763178 34.951643  2 
47.201240  45.131920 43.198478  1 
46.912025  43.886883 43.597281  1 
46.540319  42.775813 42.624468  1 
47.127383  42.586482 41.226852  1 
46.792642  43.617804 40.271617  1 
45.314455  43.782121 40.199751  1 
45.080753  45.045226 39.271963  1 
45.976192  46.517089 39.878020  1 
47.496985  46.747584 39.737796  1 
48.342914  46.445641 38.461253  1 
48.320700  45.076903 37.711163  1 
47.174581  44.683054 36.724789  1 
45.794181  44.539388 37.259160  1 
44.991084  46.203874 37.823679  1 
43.765708  46.559282 39.214889  1 
43.533430  47.733297 40.229576  1 
42.460574  47.419798 41.295359  1 
46.750947  43.692363 44.980770  4 
46.862499  42.374890 45.557451  1 
48.319153  42.093278 46.056936  1 
48.908061  42.772446 47.301702  1 
45.823277  42.110932 46.683929  1 
44.390402  42.007254 46.369525  4 
43.886886  40.938257 45.664487  1 