NumberOfAtoms 3695
SpinPolarized yes
#FixSpin .true.
#TotalSpin
NumberOfSpecies 4


MD.TypeOfRun  nose
MD.FinalTimeStep 100
MD.LengthTimeStep 1.0  fs
MD.InitialTemperature 300 K
MD.TargetTemperature  300  K


%block ChemicalSpeciesLabel
1 6 C
2 8 O
3 7 N
4 1 H
%endblock ChemicalSpeciesLabel
PAO.BasisSize dzp 
 PAO.EnergyShift 0.02 Ry 
MeshCutoff          100 Ry
MaxSCFIterations    100
DM.NumberPulay       3
DM.Tolerance         1e-3
WriteDenchar	.true.
%block ProjectedDensityOfStates
-10.0 10.0 0.200 500 eV
%endblock ProjectedDensityOfStates
NetCharge 0.00

%block BandLines
1  1.000  1.000 1.000  L
20 0.00   0.00   0.00  \Gamma
25 2.00   0.000  0.00  X
30 2.00   2.00   2.00  \Gamma
%endblock BandLines


LongOutput .true.
WriteCoorXmol .true.
LatticeConstant 1 Ang
%block LatticeVectors
  30 0.0 0.0
  0.0 30 0.0
0.0 0.0 30
%endblock LatticeVectors




#UseSaveData .true.
%block kgrid_Monkhorst_Pack
1 0 0 0.0 
 0 1 0 0.0 
 0 0 1 0.0

%endblock kgrid_Monkhorst_Pack
WriteMDXmol .true.
AtomicCoordinatesFormat Ang
%block AtomicCoordinatesAndAtomicSpecies
1.295382  31.567536 20.470292  1
1.309420  32.281333 21.776541  1
2.284727  32.259722 22.699692  1
3.552335  31.443287 22.569106  1
2.164948  33.020963 23.988635  1
1.717154  34.489151 23.936955  1
1.844899  35.216799 25.289837  1
3.274872  35.574157 25.794668  1
3.159240  36.210043 27.183104  1
4.267486  34.396153 25.814603  1
5.642554  34.662638 26.456175  1
6.473737  33.373298 26.379665  1
7.902592  33.470781 26.947745  1
7.891230  33.776179 28.448511  1
8.794090  32.237906 26.624745  1
8.384029  30.863531 27.196486  1
7.105863  30.273438 26.598638  1
6.576289  28.990274 27.255138  1
6.361968  29.160917 28.761842  1
5.240163  28.622788 26.593612  1
0.814096  32.193712 19.714296  4
0.727554  30.638599 20.568939  4
2.297858  31.336279 20.110919  4
0.412417  32.872977 21.982076  4
3.420943  30.561353 21.937033  4
3.887941  31.072150 23.543054  4
4.355564  32.060046 22.146328  4
3.158696  32.972458 24.400153  4
1.545529  32.461139 24.700254  4
0.657049  34.518679 23.649441  4
2.262956  35.046178 23.167022  4
1.299431  34.648721 26.053467  4
1.298168  36.167744 25.188981  4
3.676260  36.335294 25.113389  4
2.848533  35.475978 27.931026  4
2.428279  37.028591 27.180887  4
4.115841  36.638124 27.496666  4
4.516550  34.162346 24.774292  4
3.812335  33.533532 26.300372  4
5.509561  34.937584 27.509070  4
6.151979  35.485654 25.944517  4
6.506341  33.007792 25.351173  4
5.901113  32.679367 26.992538  4
8.383323  34.322747 26.441790  4
8.490799  33.066374 29.025828  4
6.881672  33.764333 28.869442  4
8.311266  34.772030 28.628066  4
9.797127  32.458423 27.016584  4
8.920369  32.153408 25.537781  4
8.315074  30.934457 28.285164  4
9.202366  30.159856 26.990288  4
7.242249  30.127824 25.521434  4
6.284474  30.967255 26.697621  4
7.287332  28.174096 27.080433  4
7.292065  28.973276 29.308036  4
5.609744  28.460267 29.142630  4
6.023422  30.173331 29.012678  4
4.464467  29.369534 26.828892  4
4.887826  27.653981 26.950089  4
5.335108  28.573021 25.506055  4
6.265816  15.513084 11.331506  1
6.738116  15.260433 12.720423  1
6.945375  16.173826 13.683052  1
6.762831  17.663285 13.486479  1
7.438143  15.781940 15.046436  1
6.753186  14.611871 15.767919  1
7.198546  14.451307 17.234874  1
6.698024  15.503328 18.269335  1
7.329389  15.191501 19.629342  1
6.950197  16.970779 17.873897  1
6.620104  18.038241 18.934559  1
6.942932  19.421519 18.350230  1
6.636459  20.618262 19.270948  1
7.489190  20.581956 20.542651  1
6.731443  21.999090 18.561460  1
8.100026  22.447610 18.004906  1
8.603965  21.639503 16.808097  1
10.030972  21.946574 16.331326  1
11.056330  21.813291 17.460965  1
10.388507  20.964267 15.206543  1
5.602296  14.703550 11.015820  4
7.124150  15.546327 10.655311  4
5.706845  16.444501 11.244313  4
6.936461  14.209327 12.950069  4
6.900382  17.969904 12.446454  4
7.492569  18.233486 14.070690  4
5.758818  17.965564 13.810351  4
7.303507  16.678356 15.627422  4
8.524316  15.629497 15.024649  4
7.013066  13.681439 15.244356  4
5.661691  14.698794 15.722573  4
8.291984  14.370033 17.268983  4
6.823490  13.472211 17.572643  4
5.613396  15.367536 18.367955  4
8.403361  15.394807 19.624133  4
7.180511  14.138348 19.899592  4
6.868695  15.791323 20.419681  4
6.264226  17.209918 17.054629  4
7.984099  17.098222 17.554437  4
7.239047  17.875362 19.824644  4
5.567222  17.975211 19.228038  4
6.437861  19.551264 17.390791  4
8.018416  19.371404 18.189376  4
5.583526  20.516135 19.577284  4
8.026342  21.519220 20.714716  4
8.234011  19.781084 20.523277  4
6.848001  20.414380 21.415109  4
6.423558  22.756701 19.295954  4
5.982039  22.050723 17.761270  4
8.832865  22.451464 18.816039  4
8.001172  23.493040 17.681401  4
7.892077  21.733392 15.980708  4
8.636705  20.586994 17.046865  4
10.066608  22.965545 15.927990  4
11.122544  22.743606 18.034331  4
12.057459  21.595045 17.071272  4
10.792830  21.007776 18.156829  4
10.463255  19.934048 15.590930  4
11.349708  21.223146 14.760584  4
9.632589  20.970903 14.417357  4
9.287461  30.269800 23.898690  1
8.530801  31.532552 23.677526  1
8.922057  32.593695 22.953101  1
10.261331  32.691453 22.255076  1
8.061031  33.817014 22.821436  1
6.576885  33.637535 22.469493  1
5.858440  34.963102 22.148882  1
6.189450  35.664948 20.797873  1
5.427965  36.992283 20.736224  1
7.691204  35.884240 20.533254  1
8.058976  36.716467 19.290041  1
9.589241  36.820478 19.208874  1
10.137776  37.595261 17.995340  1
9.700868  39.062960 18.021214  1
11.675919  37.462752 17.806563  1
12.603049  38.021149 18.907729  1
12.557931  37.260134 20.233686  1
13.338409  37.880268 21.401693  1
12.918684  39.328413 21.669865  1
13.079313  37.038413 22.659486  1
8.594639  29.424246 23.915956  4
9.804489  30.318724 24.860653  4
10.016124  30.077235 23.111570  4
7.558463  31.574513 24.177225  4
11.031507  32.083426 22.736448  4
10.638037  33.719565 22.260488  4
10.165427  32.371144 21.209842  4
8.541443  34.376852 22.037204  4
8.165058  34.448229 23.712631  4
6.066795  33.190808 23.334132  4
6.445897  32.937629 21.636457  4
5.999863  35.657289 22.986427  4
4.779590  34.741185 22.134104  4
5.801452  35.022203 19.997299  4
5.829285  37.713550 21.452808  4
4.363075  36.845109 20.956856  4
5.488356  37.430196 19.735601  4
8.130717  34.904526 20.318936  4
8.162649  36.329891 21.408688  4
7.638978  37.724617 19.385472  4
7.651156  36.255149 18.384761  4
10.036060  35.824834 19.247602  4
9.843206  37.366816 20.115553  4
9.690267  37.134014 17.100955  4
10.543620  39.753535 17.923862  4
9.172486  39.325195 18.942396  4
9.022950  39.263477 17.184191  4
11.930020  37.993549 16.878157  4
11.931469  36.412132 17.618236  4
12.386992  39.082757 19.053715  4
13.634177  37.971132 18.531395  4
12.870260  36.223196 20.068200  4
11.545777  37.204219 20.605538  4
14.411210  37.849604 21.177179  4
13.473633  40.017240 21.024755  4
13.116771  39.618473 22.708315  4
11.848919  39.482995 21.484876  4
12.028419  37.121882 22.980963  4
13.707199  37.376420 23.484905  4
13.289580  35.981007 22.480741  4
2.869125  13.659431 10.876886  1
3.263700  14.309384 12.156676  1
3.317943  15.626925 12.411709  1
3.013690  16.698085 11.386771  1
3.747430  16.151853 13.751560  1
3.123736  15.541157 15.015214  1
3.477602  16.307462 16.305034  1
2.811032  17.696729 16.535263  1
3.371072  18.300532 17.826485  1
2.954595  18.685822 15.362889  1
2.454047  20.122378 15.606197  1
2.688814  20.942742 14.329089  1
2.209705  22.406073 14.383507  1
2.970540  23.207608 15.443869  1
2.227192  23.126035 13.004947  1
3.584570  23.326779 12.297014  1
4.243563  22.041826 11.793063  1
5.666346  22.180790 11.232412  1
6.617552  22.841990 12.234027  1
6.190844  20.779400 10.887589  1
2.306615  12.745741 11.086682  4
3.766235  13.396185 10.310336  4
2.234517  14.298414 10.263240  4
3.541068  13.613869 12.954316  4
3.195360  16.363235 10.362340  4
3.645051  17.580365 11.534808  4
1.965868  17.013146 11.471107  4
3.490493  17.196350 13.704192  4
4.841840  16.141517 13.826686  4
3.504156  14.516679 15.129599  4
2.034779  15.459192 14.923395  4
4.568760  16.387754 16.384432  4
3.171198  15.666192 17.146624  4
1.739216  17.518211 16.689938  4
4.419530  18.586250 17.708683  4
3.300879  17.586595 18.656966  4
2.802767  19.187844 18.120369  4
2.308932  18.328266 14.554052  4
3.992335  18.724544 15.032973  4
3.021144  20.574684 16.428201  4
1.393368  20.118632 15.877505  4
2.242747  20.436848 13.470282  4
3.772998  20.933904 14.231536  4
1.151661  22.378081 14.687969  4
3.405909  24.127357 15.042476  4
3.785263  22.634399 15.895741  4
2.287639  23.500261 16.249095  4
1.800111  24.126560 13.162431  4
1.534398  22.620378 12.320167  4
4.255045  23.881731 12.958449  4
3.413152  23.975154 11.426625  4
3.586066  21.559042 11.061769  4
4.355925  21.331281 12.598270  4
5.636563  22.777329 10.312899  4
6.557540  23.932757 12.161607  4
7.659425  22.556701 12.047316  4
6.380812  22.560315 13.267046  4
6.332637  20.175608 11.798644  4
7.153206  20.843246 10.378091  4
5.494938  20.242908 10.237850  4
9.234242  24.973918 16.204226  1
8.493028  26.220805 16.538690  1
8.958298  27.479287 16.478328  1
10.375084  27.837213 16.084551  1
8.102623  28.653457 16.858269  1
6.679623  28.742007 16.287307  1
5.988211  30.090144 16.571135  1
6.480605  31.342856 15.786506  1
5.712916  32.568761 16.289784  1
8.000385  31.587962 15.846244  1
8.513214  32.900170 15.222902  1
10.039273  32.954082 15.388289  1
10.728365  34.192731 14.784350  1
10.268934  35.482349 15.471014  1
12.279880  34.092236 14.742146  1
13.047574  33.997715 16.078431  1
12.842796  32.691312 16.847013  1
13.455462  32.625461 18.253517  1
12.981955  33.779346 19.142084  1
13.048638  31.292346 18.897874  1
8.558313  24.262406 15.722424  4
9.621348  24.523069 17.121814  4
10.061729  25.152332 15.517916  4
7.463570  26.062912 16.873635  4
11.085739  27.034306 16.296442  4
10.731812  28.712721 16.636981  4
10.420529  28.070801 15.013253  4
8.671867  29.499238 16.512075  4
8.080352  28.765597 17.949329  4
6.068765  27.957285 16.754663  4
6.668696  28.543005 15.209692  4
6.008989  30.281444 17.651112  4
4.923981  29.957518 16.319723  4
6.209767  31.190749 14.733847  4
6.006625  32.829545 17.309834  4
4.630836  32.386177 16.280001  4
5.895696  33.434336 15.646330  4
8.479216  30.815562 15.235456  4
8.347324  31.527564 16.877376  4
8.068702  33.754213 15.747202  4
8.233468  32.958242 14.166004  4
10.492786  32.044376 14.989269  4
10.164973  32.977172 16.469362  4
10.407857  34.247546 13.732110  4
11.106311  36.090125 15.825993  4
9.621541  35.289542 16.331385  4
9.702222  36.098079 14.763835  4
12.643898  34.994069 14.229859  4
12.574061  33.254511 14.096972  4
12.797867  34.863645 16.697152  4
14.119447  34.085664 15.853252  4
13.190092  31.851587 16.235114  4
11.791967  32.512183 17.018856  4
14.548665  32.654393 18.174019  4
13.605045  34.666292 18.988126  4
13.039169  33.517572 20.205076  4
11.942925  34.057489 18.928618  4
11.963759  31.261241 19.089606  4
13.558844  31.154559 19.852080  4
13.296787  30.446300 18.252198  4
4.232115  25.619177 25.272686  1
4.763239  26.779360 24.505958  1
6.006695  26.927001 24.020244  1
7.115718  25.916505 24.218777  1
6.416857  28.161666 23.270192  1
5.502684  28.679555 22.149993  1
6.134948  29.812405 21.317542  1
7.285009  29.441531 20.334082  1
7.808176  30.726557 19.685635  1
8.439528  28.637591 20.961888  1
9.671438  28.387882 20.071112  1
10.699750  27.580562 20.877291  1
11.989697  27.207609 20.121788  1
12.782793  28.453010 19.714756  1
12.886033  26.182931 20.873915  1
13.494261  26.595117 22.231894  1
12.482446  26.757094 23.367383  1
13.024973  27.324246 24.687214  1
13.735369  28.666219 24.488078  1
11.847109  27.515113 25.653703  1
3.192964  25.434630 24.987431  4
4.267385  25.842537 26.342242  4
4.789656  24.702624 25.081201  4
4.042399  27.585961 24.342600  4
6.983576  25.320127 25.125120  4
8.088717  26.408848 24.317869  4
7.165380  25.237918 23.357752  4
7.369657  27.891741 22.847643  4
6.648085  28.970464 23.974367  4
4.587890  29.081853 22.606791  4
5.186306  27.867636 21.485411  4
6.452020  30.616957 21.992477  4
5.325503  30.245568 20.708811  4
6.843996  28.824985 19.540381  4
8.341632  31.347637 20.409831  4
6.984812  31.318497 19.266101  4
8.488626  30.497585 18.860274  4
8.063800  27.628358 21.159930  4
8.763527  29.111874 21.887808  4
10.118346  29.347184 19.784957  4
9.384295  27.853476 19.159727  4
10.234475  26.681050 21.285767  4
10.955053  28.257438 21.690746  4
11.675032  26.700340 19.196259  4
13.826219  28.411165 20.040506  4
12.353438  29.373034 20.121868  4
12.790616  28.548050 18.623292  4
13.727691  25.946311 20.207677  4
12.338980  25.239207 20.995132  4
14.086988  27.503826 22.097996  4
14.204667  25.811576 22.529785  4
11.972264  25.802784 23.538209  4
11.708046  27.456338 23.089500  4
13.725225  26.605688 25.129448  4
14.781672  28.511249 24.205497  4
13.727801  29.265050 25.406280  4
13.260304  29.265510 23.702152  4
11.166898  28.305129 25.296100  4
12.203912  27.806276 26.642501  4
11.264596  26.596301 25.757303  4
16.791787  24.183650 11.286061  1
16.359821  23.414235 10.815514  1
15.373497  23.269711 10.894695  1
14.819132  23.894596 11.444421  1
13.832801  23.750066 11.523599  1
13.278435  24.374951 12.073325  1
12.292112  24.230427 12.152506  1
11.737747  24.855311 12.702232  1
10.751415  24.710782 12.781410  1
10.197050  25.335666 13.331136  1
9.210727  25.191142 13.410317  1
8.656362  25.816027 13.960043  1
7.670030  25.671497 14.039221  1
7.115665  26.296382 14.588947  1
6.129342  26.151858 14.668128  1
5.574977  26.776742 15.217854  1
4.588645  26.632213 15.297032  1
4.034280  27.257098 15.846758  1
3.047957  27.112573 15.925939  1
2.493592  27.737458 16.475665  1
1.507260  27.592928 16.554843  1
0.952895  28.217813 17.104569  1
15.699802  31.209654 14.981757  1
15.117502  32.018908 14.904023  1
15.384030  32.770595 14.300765  1
16.232857  32.713037 13.775237  1
16.499384  33.464733 13.171976  1
17.348211  33.407176 12.646448  1
17.614739  34.158862 12.043190  1
18.463566  34.101305 11.517662  1
18.730093  34.853001 10.914400  1
19.578920  34.795443 10.388872  1
19.845449  35.547130 9.785614  1
20.694276  35.489572 9.260086  1
20.960802  36.241268 8.656825  1
21.809629  36.183710 8.131297  1
22.076158  36.935397 7.528039  1
22.924985  36.877839 7.002511  1
23.191512  37.629535 6.399249  1
24.040339  37.571978 5.873721  1
24.306867  38.323665 5.270463  1
25.155694  38.266107 4.744935  1
25.422221  39.017803 4.141674  1
26.271048  38.960245 3.616146  1
17.900109  32.586645 20.330622  1
16.954696  32.899105 20.423201  1
16.509549  33.376826 19.665825  1
17.009807  33.542091 18.815867  1
16.564653  34.019817 18.058487  1
17.064911  34.185082 17.208529  1
16.619765  34.662803 16.451154  1
17.120023  34.828068 15.601195  1
16.674868  35.305793 14.843816  1
17.175127  35.471059 13.993858  1
16.729980  35.948779 13.236482  1
17.230239  36.114045 12.386524  1
16.785084  36.591770 11.629144  1
17.285342  36.757035 10.779186  1
16.840196  37.234756 10.021810  1
17.340454  37.400021 9.171852  1
16.895299  37.877747 8.414473  1
17.395558  38.043012 7.564514  1
16.950411  38.520733 6.807139  1
17.450670  38.685998 5.957181  1
17.005515  39.163724 5.199801  1
17.505773  39.328989 4.349843  1
16.594984  22.057311 20.519428  1
16.436579  21.964400 19.536430  1
15.542154  22.190434 19.150550  1
14.806128  22.509380 19.747659  1
13.911698  22.735415 19.361771  1
13.175672  23.054362 19.958880  1
12.281247  23.280396 19.573000  1
11.545221  23.599343 20.170109  1
10.650790  23.825378 19.784221  1
9.914765  24.144324 20.381330  1
9.020340  24.370358 19.995450  1
8.284314  24.689305 20.592559  1
7.389883  24.915340 20.206671  1
6.653857  25.234286 20.803780  1
5.759433  25.460320 20.417900  1
5.023407  25.779267 21.015009  1
4.128976  26.005302 20.629121  1
3.392950  26.324248 21.226230  1
2.498525  26.550282 20.840349  1
1.762500  26.869229 21.437459  1
0.868069  27.095264 21.051570  1
0.132043  27.414210 21.648679  1
31.828658  18.168583 24.885132  1
31.435521  17.557577 24.198020  1
30.523497  17.171251 24.335695  1
30.004601  17.395927 25.160478  1
29.092569  17.009596 25.298150  1
28.573673  17.234271 26.122934  1
27.661648  16.847946 26.260608  1
27.142752  17.072621 27.085392  1
26.230720  16.686290 27.223064  1
25.711824  16.910965 28.047847  1
24.799800  16.524640 28.185522  1
24.280904  16.749315 29.010306  1
23.368872  16.362984 29.147978  1
22.849976  16.587659 29.972761  1
21.937951  16.201334 30.110436  1
21.419055  16.426009 30.935220  1
20.507023  16.039678 31.072891  1
19.988127  16.264353 31.897675  1
19.076102  15.878028 32.035350  1
18.557207  16.102703 32.860134  1
17.645174  15.716372 32.997805  1
17.126279  15.941047 33.822589  1
1.473614  16.791839 38.591958  1
0.491305  16.668018 38.451446  1
0.000123  17.255960 37.808752  1
0.491243  17.967726 37.306566  1
0.000053  18.555671 36.663868  1
0.491173  19.267436 36.161682  1
-0.000009  19.855379 35.518988  1
0.491111  20.567144 35.016802  1
-0.000079  21.155089 34.374103  1
0.491041  21.866855 33.871917  1
-0.000140  22.454797 33.229224  1
0.490979  23.166563 32.727038  1
-0.000211  23.754508 32.084339  1
0.490909  24.466273 31.582153  1
-0.000272  25.054216 30.939459  1
0.490848  25.765981 30.437273  1
-0.000342  26.353926 29.794575  1
0.490778  27.065692 29.292389  1
-0.000404  27.653634 28.649695  1
0.490716  28.365400 28.147509  1
-0.000474  28.953345 27.504811  1
0.490646  29.665110 27.002625  1
1.320858  18.623054 40.000252  1
0.437301  18.382969 39.598139  1
-0.000111  19.002235 38.946088  1
0.446027  19.861589 38.696144  1
0.008607  20.480858 38.044087  1
0.454744  21.340212 37.794142  1
0.017333  21.959479 37.142091  1
0.463470  22.818833 36.892147  1
0.026050  23.438102 36.240090  1
0.472188  24.297456 35.990145  1
0.034776  24.916722 35.338094  1
0.480913  25.776076 35.088150  1
0.043494  26.395345 34.436093  1
0.489631  27.254699 34.186149  1
0.052219  27.873966 33.534098  1
0.498357  28.733320 33.284153  1
0.060937  29.352588 32.632096  1
0.507074  30.211942 32.382152  1
0.069663  30.831209 31.730101  1
0.515800  31.690563 31.480156  1
0.078381  32.309832 30.828099  1
0.524518  33.169186 30.578155  1
18.008121  20.808861 19.095787  1
18.608982  20.032717 19.287032  1
19.189244  20.038396 20.101436  1
19.168652  20.820216 20.724601  1
19.748921  20.825891 21.539011  1
19.728330  21.607710 22.162176  1
20.308592  21.613390 22.976580  1
20.288000  22.395209 23.599745  1
20.868269  22.400884 24.414155  1
20.847678  23.182704 25.037320  1
21.427940  23.188383 25.851724  1
21.407348  23.970203 26.474889  1
21.987617  23.975878 27.289299  1
21.967026  24.757697 27.912464  1
22.547288  24.763377 28.726868  1
22.526696  25.545196 29.350033  1
23.106965  25.550871 30.164443  1
23.086374  26.332691 30.787607  1
23.666636  26.338370 31.602012  1
23.646044  27.120190 32.225177  1
24.226313  27.125865 33.039586  1
24.205722  27.907684 33.662751  1
15.385376  33.216278 28.586218  1
15.570227  34.134871 28.236897  1
16.397267  34.620451 28.520104  1
17.039463  34.187447 29.152632  1
17.866509  34.673035 29.435839  1
18.508705  34.240031 30.068368  1
19.335745  34.725611 30.351575  1
19.977941  34.292607 30.984103  1
20.804987  34.778195 31.267310  1
21.447183  34.345191 31.899838  1
22.274224  34.830771 32.183046  1
22.916419  34.397766 32.815574  1
23.743466  34.883355 33.098781  1
24.385661  34.450350 33.731309  1
25.212702  34.935931 34.014516  1
25.854897  34.502926 34.647045  1
26.681944  34.988515 34.930251  1
27.324139  34.555510 35.562780  1
28.151180  35.041091 35.845987  1
28.793375  34.608086 36.478515  1
29.620422  35.093675 36.761722  1
30.262617  34.660670 37.394250  1
33.280663  19.075641 20.734458  1
33.334146  18.247917 20.175870  1
32.719954  17.480380 20.359298  1
32.052276  17.540558 21.101311  1
31.438081  16.773012 21.284737  1
30.770402  16.833189 22.026751  1
30.156210  16.065652 22.210178  1
29.488532  16.125830 22.952192  1
28.874336  15.358284 23.135618  1
28.206658  15.418462 23.877631  1
27.592466  14.650925 24.061059  1
26.924788  14.711103 24.803073  1
26.310592  13.943557 24.986498  1
25.642914  14.003734 25.728512  1
25.028722  13.236197 25.911939  1
24.361043  13.296375 26.653953  1
23.746848  12.528829 26.837379  1
23.079170  12.589007 27.579392  1
22.464977  11.821470 27.762820  1
21.797299  11.881648 28.504834  1
21.183104  11.114101 28.688259  1
20.515425  11.174279 29.430273  1
9.714679  23.499981 -0.001301  1
8.849561  24.001556 -0.001265  1
8.851379  25.001550 -0.001182  1
9.718311  25.499977 -0.001135  1
9.720125  26.499979 -0.001051  1
10.587057  26.998405 -0.001004  1
10.588876  27.998399 -0.000921  1
11.455807  28.496826 -0.000874  1
11.457621  29.496828 -0.000790  1
12.324553  29.995254 -0.000743  1
12.326372  30.995248 -0.000660  1
13.193304  31.493675 -0.000613  1
13.195117  32.493677 -0.000530  1
14.062049  32.992103 -0.000483  1
14.063868  33.992097 -0.000399  1
14.930800  34.490524 -0.000352  1
14.932614  35.490526 -0.000269  1
15.799546  35.988952 -0.000222  1
15.801364  36.988946 -0.000138  1
16.668296  37.487373 -0.000091  1
16.670110  38.487375 -0.000008  1
17.537042  38.985801 0.000039  1
17.701288  37.041678 19.084250  1
17.291420  37.856674 18.674620  1
17.606079  38.179836 17.782125  1
18.330607  37.688008 17.299253  1
18.645266  38.011176 16.406751  1
19.369793  37.519348 15.923879  1
19.684453  37.842510 15.031385  1
20.408980  37.350682 14.548513  1
20.723639  37.673850 13.656011  1
21.448167  37.182022 13.173139  1
21.762826  37.505184 12.280644  1
22.487354  37.013356 11.797772  1
22.802013  37.336525 10.905270  1
23.526540  36.844697 10.422399  1
23.841200  37.167858 9.529904  1
24.565727  36.676030 9.047032  1
24.880386  36.999199 8.154530  1
25.604913  36.507371 7.671658  1
25.919573  36.830533 6.779164  1
26.644100  36.338705 6.296292  1
26.958759  36.661873 5.403790  1
27.683287  36.170045 4.920918  1
2.849400  14.388765 31.956087  1
1.879731  14.463101 32.188948  1
1.524030  15.309785 32.584668  1
2.137991  16.082137 32.747531  1
1.782282  16.928826 33.143255  1
2.396242  17.701179 33.306117  1
2.040541  18.547862 33.701838  1
2.654501  19.320215 33.864700  1
2.298792  20.166904 34.260424  1
2.912752  20.939257 34.423287  1
2.557051  21.785940 34.819007  1
3.171012  22.558293 34.981870  1
2.815303  23.404981 35.377594  1
3.429263  24.177334 35.540456  1
3.073562  25.024018 35.936176  1
3.687522  25.796370 36.099039  1
3.331813  26.643059 36.494763  1
3.945773  27.415412 36.657626  1
3.590072  28.262095 37.053346  1
4.204033  29.034448 37.216208  1
3.848324  29.881137 37.611932  1
4.462284  30.653489 37.774795  1
13.976009  7.326855 30.051722  1
14.487179  6.547212 29.689962  1
15.333105  6.697891 29.178400  1
15.667869  7.628209 29.028594  1
16.513804  7.778884 28.517027  1
16.848567  8.709202 28.367221  1
17.694494  8.859880 27.855659  1
18.029258  9.790198 27.705853  1
18.875192  9.940873 27.194286  1
19.209956  10.871191 27.044480  1
20.055882  11.021870 26.532918  1
20.390646  11.952188 26.383112  1
21.236580  12.102863 25.871545  1
21.571344  13.033181 25.721738  1
22.417270  13.183860 25.210177  1
22.752034  14.114177 25.060370  1
23.597968  14.264853 24.548804  1
23.932732  15.195170 24.398997  1
24.778658  15.345849 23.887436  1
25.113422  16.276167 23.737629  1
25.959356  16.426842 23.226063  1
26.294120  17.357160 23.076256  1
25.825993  19.341396 22.734475  1
26.750995  19.714470 22.662447  1
27.332139  19.770537 23.474308  1
26.988284  19.453529 24.358207  1
27.569430  19.509594 25.170078  1
27.225573  19.192587 26.053967  1
27.806719  19.248653 26.865837  1
27.462862  18.931645 27.749726  1
28.044008  18.987711 28.561597  1
27.700152  18.670704 29.445486  1
28.281298  18.726769 30.257356  1
27.937441  18.409762 31.141245  1
28.518587  18.465828 31.953116  1
28.174730  18.148820 32.837005  1
28.755876  18.204886 33.648875  1
28.412019  17.887879 34.532764  1
28.993165  17.943944 35.344635  1
13.693541  21.514205 21.321042  1
14.649400  21.254104 21.457714  1
15.256785  21.843660 21.990159  1
14.908311  22.693328 22.385936  1
15.515697  23.282893 22.918386  1
15.167222  24.132552 23.314159  1
15.774608  24.722117 23.846609  1
15.426133  25.571776 24.242381  1
16.033519  26.161341 24.774831  1
15.685044  27.011000 25.170603  1
16.292430  27.600565 25.703053  1
15.943954  28.450224 26.098825  1
16.551340  29.039789 26.631275  1
16.202865  29.889448 27.027048  1
16.810251  30.479013 27.559498  1
16.461776  31.328672 27.955270  1
17.069162  31.918237 28.487720  1
18.249771  4.039775 33.129786  1
17.845204  4.852609 33.548864  1
18.434830  5.564976 33.929477  1
19.429031  5.464511 33.891014  1
20.018666  6.176881 34.271629  1
21.012857  6.076414 34.233163  1
21.602492  6.788784 34.613779  1
22.596684  6.688316 34.575313  1
23.186318  7.400686 34.955928  1
24.180510  7.300219 34.917463  1
24.770145  8.012589 35.298078  1
25.764337  7.912121 35.259612  1
26.353971  8.624491 35.640227  1
27.348163  8.524023 35.601762  1
27.937798  9.236393 35.982377  1
28.931990  9.135926 35.943912  1
29.521624  9.848296 36.324527  1
17.834522  19.554588 24.898293  1
18.822998  19.480283 25.030177  1
19.343792  20.267116 25.361324  1
18.876111  21.128264 25.560589  1
19.396905  21.915106 25.891739  1
18.929223  22.776244 26.091002  1
19.450017  23.563086 26.422151  1
18.982335  24.424224 26.621414  1
19.503129  25.211067 26.952564  1
19.035447  26.072205 27.151826  1
19.556241  26.859047 27.482976  1
19.088559  27.720185 27.682238  1
19.609354  28.507027 28.013388  1
19.141671  29.368165 28.212650  1
19.662466  30.155008 28.543800  1
19.194784  31.016146 28.743062  1
19.715578  31.802988 29.074212  1
24.003651  29.390543 30.523358  1
23.535620  30.170355 30.107617  1
23.050908  30.058160 29.240174  1
23.034224  29.166146 28.788465  1
22.549509  29.053945 27.921014  1
22.532828  28.161938 27.469312  1
22.048113  28.049737 26.601861  1
22.031431  27.157729 26.150159  1
21.546716  27.045528 25.282709  1
21.530035  26.153520 24.831007  1
21.045320  26.041319 23.963556  1
21.028639  25.149312 23.511854  1
20.543924  25.037111 22.644403  1
20.527242  24.145103 22.192701  1
20.042528  24.032902 21.325251  1
20.025846  23.140894 20.873548  1
19.541131  23.028693 20.006098  1
19.918082  30.693357 22.536171  1
20.434215  29.936602 22.135013  1
20.280504  29.001614 22.454640  1
19.610655  28.823376 23.175433  1
19.456939  27.888382 23.495067  1
18.787095  27.710150 24.215853  1
18.633379  26.775156 24.535487  1
17.963535  26.596924 25.256274  1
17.809819  25.661930 25.575908  1
17.139976  25.483698 26.296694  1
16.986260  24.548705 26.616328  1
16.316416  24.370473 27.337115  1
16.162700  23.435479 27.656749  1
15.492856  23.257247 28.377535  1
15.339140  22.322253 28.697169  1
14.669296  22.144021 29.417956  1
14.515580  21.209027 29.737590  1
36.491176  11.793739 9.461833  1
35.885409  11.352149 10.123683  1
35.867532  11.666800 11.072717  1
36.455426  12.423048 11.359909  1
36.437553  12.737705 12.308950  1
37.025443  13.493947 12.596134  1
37.007570  13.808604 13.545175  1
37.595461  14.564845 13.832359  1
37.577588  14.879503 14.781401  1
38.165478  15.635744 15.068585  1
38.147605  15.950402 16.017626  1
38.735496  16.706643 16.304810  1
38.717622  17.021300 17.253852  1
39.305513  17.777542 17.541036  1
39.287640  18.092199 18.490077  1
39.875530  18.848440 18.777261  1
39.857657  19.163098 19.726302  1
39.786149  24.856360 17.904262  1
40.000224  24.411926 17.034405  1
39.741117  23.457988 16.883224  1
39.267932  22.948474 17.601903  1
39.008822  21.994527 17.450725  1
38.535641  21.485021 18.169400  1
38.276531  20.531074 18.018222  1
37.803350  20.021569 18.736898  1
37.544239  19.067622 18.585720  1
37.071059  18.558117 19.304396  1
36.811948  17.604170 19.153218  1
36.338767  17.094664 19.871894  1
36.079657  16.140717 19.720716  1
35.606476  15.631212 20.439392  1
35.347366  14.677265 20.288214  1
34.874185  14.167759 21.006889  1
34.615075  13.213812 20.855711  1
37.036801  18.373586 1.301935  1
38.029550  18.491256 1.326507  1
38.624104  17.697527 1.454922  1
38.225910  16.786118 1.558766  1
38.820465  15.992380 1.687183  1
38.422271  15.080980 1.791025  1
39.016826  14.287242 1.919442  1
38.618631  13.375842 2.023285  1
39.213187  12.582104 2.151701  1
38.814992  11.670705 2.255544  1
39.409547  10.876966 2.383960  1
39.011353  9.965567 2.487803  1
39.605908  9.171828 2.616219  1
39.207713  8.260429 2.720062  1
39.802269  7.466690 2.848478  1
39.404074  6.555291 2.952321  1
39.998629  5.761552 3.080738  1
24.447785  37.944670 39.152575  1
25.436571  37.824968 39.063284  1
25.809336  36.943601 38.773061  1
25.193312  36.181926 38.572127  1
25.566075  35.300550 38.281901  1
24.950053  34.538884 38.080969  1
25.322816  33.657508 37.790743  1
24.706794  32.895843 37.589811  1
25.079557  32.014466 37.299586  1
24.463535  31.252801 37.098654  1
24.836298  30.371424 36.808428  1
24.220276  29.609759 36.607496  1
24.593039  28.728382 36.317271  1
23.977017  27.966717 36.116339  1
24.349780  27.085340 35.826113  1
23.733758  26.323675 35.625181  1
24.106521  25.442299 35.334956  1
30.731458  7.603833 21.004859  1
29.798166  7.961257 21.039685  1
29.641003  8.932192 21.220172  1
30.417137  9.545712 21.365835  1
30.259978  10.516656 21.546325  1
31.036109  11.130167 21.691986  1
30.878950  12.101111 21.872475  1
31.655080  12.714622 22.018136  1
31.497921  13.685566 22.198626  1
32.274051  14.299077 22.344287  1
32.116893  15.270021 22.524776  1
32.893023  15.883532 22.670437  1
32.735864  16.854476 22.850926  1
33.511994  17.467987 22.996588  1
33.354836  18.438931 23.177077  1
34.130966  19.052442 23.322738  1
33.973807  20.023386 23.503227  1
31.553695  15.179148 24.640569  1
31.906777  15.908516 25.226535  1
31.385314  16.203130 26.027328  1
30.510760  15.768376 26.242161  1
29.989289  16.062990 27.042960  1
29.114744  15.628237 27.257787  1
28.593273  15.922850 28.058585  1
27.718727  15.488097 28.273413  1