NumberOfAtoms 2809
SpinPolarized yes
#FixSpin .true.
#TotalSpin
NumberOfSpecies 4


MD.TypeOfRun  nose
MD.FinalTimeStep 50
MD.LengthTimeStep 0.5  fs
MD.InitialTemperature 300 K
MD.TargetTemperature  300  K


%block ChemicalSpeciesLabel
1 6 C
2 8 O
3 7 N
4 1 H
%endblock ChemicalSpeciesLabel
PAO.BasisSize dzp 
 PAO.EnergyShift 0.02 Ry 
MeshCutoff          100 Ry
MaxSCFIterations    100
DM.NumberPulay       3
DM.Tolerance         1e-3
WriteDenchar	.true.
%block ProjectedDensityOfStates
-10.0 10.0 0.200 500 eV
%endblock ProjectedDensityOfStates
NetCharge 0.00

%block BandLines
1  1.000  1.000 1.000  L
20 0.00   0.00   0.00  \Gamma
25 2.00   0.000  0.00  X
30 2.00   2.00   2.00  \Gamma
%endblock BandLines


LongOutput .true.
WriteCoorXmol .true.
LatticeConstant 1 Ang
%block LatticeVectors
  30 0.0 0.0
  0.0 30 0.0
0.0 0.0 30
%endblock LatticeVectors




#UseSaveData .true.
%block kgrid_Monkhorst_Pack
1 0 0 0.0 
 0 1 0 0.0 
 0 0 1 0.0

%endblock kgrid_Monkhorst_Pack
WriteMDXmol .true.
AtomicCoordinatesFormat Ang
%block AtomicCoordinatesAndAtomicSpecies
48.841516  38.345641 20.990887  1
47.689794  37.407440 21.087347  1
47.691691  36.093199 20.810462  1
48.900857  35.340274 20.299120  1
46.448715  35.260328 20.939104  1
45.611192  35.381864 22.220724  1
44.493837  34.325124 22.325141  1
44.906723  32.852844 22.623967  1
43.650419  31.977317 22.598879  1
45.989155  32.281513 21.688393  1
46.312994  30.783095 21.841074  1
47.403799  30.414556 20.824492  1
47.878520  28.949297 20.863195  1
46.745639  27.981794 20.507926  1
49.148950  28.676221 20.008492  1
49.064735  28.878211 18.480078  1
48.902771  30.331333 18.031139  1
48.650413  30.557272 16.533402  1
47.440981  29.765574 16.027738  1
48.404984  32.055535 16.303470  1
48.793110  39.072265 21.806324  4
48.795090  38.882756 20.039869  4
49.801766  37.835877 21.066048  4
46.752961  37.868228 21.414334  4
49.596586  35.983134 19.753886  4
48.609712  34.547368 19.602354  4
49.436918  34.875672 21.136432  4
46.814800  34.251327 20.854646  4
45.811676  35.396001 20.056349  4
45.128418  36.368901 22.227455  4
46.242280  35.339167 23.115643  4
43.871625  34.373358 21.422976  4
43.835863  34.642709 23.149515  4
45.305970  32.831269 23.646082  4
43.252442  31.883459 21.585182  4
42.864722  32.398865 23.238651  4
43.866542  30.974488 22.978730  4
46.934196  32.770521 21.946680  4
45.727824  32.482313 20.649820  4
45.415543  30.189945 21.629829  4
46.641531  30.563351 22.862073  4
48.258685  31.085605 20.930883  4
46.916069  30.598249 19.868758  4
48.173630  28.743090 21.904025  4
47.021109  27.288631 19.707773  4
45.837863  28.501297 20.187632  4
46.486800  27.375583 21.383082  4
49.425512  27.625523 20.175219  4
49.988169  29.262463 20.404231  4
48.265691  28.249184 18.079005  4
49.997990  28.497761 18.042307  4
49.766435  30.914397 18.369215  4
48.043210  30.781799 18.504525  4
49.540896  30.259475 15.967180  4
47.733389  28.746802 15.753478  4
46.998695  30.231333 15.139366  4
46.653453  29.696031 16.787658  4
47.461597  32.377831 16.773404  4
48.337144  32.275223 15.237196  4
49.210999  32.660216 16.726519  4
31.543881  36.978086 14.208424  1
32.229175  37.676406 15.330348  1
32.176810  38.986861 15.619939  1
31.416526  40.003459 14.795957  1
32.931382  39.566571 16.781734  1
32.832648  38.867344 18.145588  1
33.466677  39.674679 19.295501  1
32.720309  40.949342 19.791033  1
33.570884  41.626508 20.869665  1
32.344761  41.951455 18.682832  1
31.751659  43.297451 19.141051  1
31.452012  44.146446 17.896649  1
30.815348  45.522527 18.170333  1
31.753381  46.425514 18.976810  1
30.293743  46.240272 16.892894  1
31.314271  46.641495 15.805932  1
31.952107  45.469495 15.058321  1
33.089346  45.818975 14.087495  1
34.206919  46.611511 14.771693  1
33.667790  44.511536 13.527226  1
31.210531  35.990671 14.538805  4
32.242397  36.851934 13.377013  4
30.664628  37.517402 13.856798  4
32.839621  37.027841 15.965660  4
31.308711  39.701550 13.751058  4
31.932376  40.969196 14.781796  4
30.416410  40.159625 15.219856  4
32.529358  40.561586 16.868672  4
33.983194  39.718306 16.509429  4
33.368960  37.910269 18.084482  4
31.793555  38.625173 18.395819  4
34.504127  39.915549 19.032718  4
33.535920  38.993180 20.158141  4
31.788995  40.613662 20.264905  4
34.477004  42.064661 20.443350  4
33.868320  40.908162 21.644159  4
33.007043  42.419169 21.370098  4
31.532501  41.504037 18.100599  4
33.208054  42.144233 18.046585  4
32.481159  43.826905 19.765052  4
30.843366  43.135998 19.730627  4
30.831849  43.582009 17.197176  4
32.439238  44.298541 17.463865  4
29.923434  45.337411 18.789333  4
31.905841  47.400523 18.504882  4
32.741059  45.978298 19.121796  4
31.327403  46.611939 19.968867  4
29.803268  47.166128 17.225271  4
29.497336  45.639122 16.435805  4
32.075447  47.288143 16.250301  4
30.786711  47.259302 15.066103  4
31.170853  44.896301 14.547181  4
32.412283  44.781605 15.751792  4
32.686296  46.406611 13.254138  4
33.975192  47.681514 14.775420  4
35.164813  46.484140 14.254036  4
34.351978  46.295522 15.811704  4
34.174233  43.933339 14.317097  4
34.399893  44.718403 12.745538  4
32.883891  43.879351 13.102828  4
33.697603  38.724966 39.531334  1
32.328889  38.778167 40.114243  1
31.259291  38.060350 39.733987  1
31.268484  37.077191 38.583437  1
29.924905  38.221919 40.403702  1
29.866479  38.215076 41.938402  1
28.430513  38.167419 42.496804  1
27.641045  36.830393 42.368421  1
26.224817  37.044020 42.910769  1
27.597755  36.238161 40.946885  1
26.696049  35.006405 40.739180  1
26.789462  34.577103 39.267415  1
25.971635  33.327707 38.887928  1
24.469655  33.560318 39.076724  1
26.287861  32.775257 37.468816  1
25.977252  33.666056 36.246547  1
26.860589  34.907652 36.114268  1
26.476576  35.902004 35.008940  1
25.021639  36.364122 35.130656  1
27.403821  37.121778 35.110250  1
34.440101  38.843160 40.325054  4
33.819620  39.540206 38.813296  4
33.901945  37.777471 39.033254  4
32.210179  39.493197 40.933721  4
32.021172  37.320092 37.829086  4
30.306238  37.068050 38.060992  4
31.461406  36.063205 38.956160  4
29.354935  37.389289 40.028074  4
29.410490  39.106955 40.009272  4
30.329475  39.140728 42.307403  4
30.451098  37.387812 42.356529  4
27.853399  38.996203 42.068512  4
28.503511  38.389609 43.573227  4
28.138412  36.098843 43.018069  4
25.643020  37.696652 42.254751  4
26.250779  37.496557 43.910202  4
25.696128  36.091113 43.006246  4
28.599388  35.857235 40.722006  4
27.313632  37.008630 40.230714  4
25.656501  35.269533 40.967157  4
27.000972  34.190985 41.403090  4
27.834378  34.438676 38.982033  4
26.380349  35.435979 38.738256  4
26.272332  32.532143 39.587641  4
23.891489  33.318273 38.180209  4
24.237512  34.595933 39.341565  4
24.093471  32.921759 39.883643  4
25.701115  31.853707 37.347469  4
27.337524  32.457490 37.426281  4
24.917585  33.934317 36.258712  4
26.124726  33.056307 35.344433  4
27.906755  34.599727 36.009899  4
26.819567  35.501016 37.015430  4
26.626512  35.431095 34.030158  4
24.349146  35.658194 34.632621  4
24.871464  37.345450 34.665691  4
24.706934  36.446160 36.177912  4
27.214972  37.685363 36.038366  4
27.241417  37.799425 34.271070  4
28.455128  36.823410 35.110253  4
49.358608  14.062020 0.279893  1
48.875723  14.789753 0.766962  1
48.500153  14.618051 1.677706  1
48.607462  13.718620 2.101391  1
48.231886  13.546922 3.012143  1
48.339195  12.647491 3.435828  1
47.963624  12.475789 4.346572  1
48.070933  11.576358 4.770257  1
47.695357  11.404659 5.681009  1
47.802666  10.505228 6.104694  1
47.427095  10.333527 7.015438  1
47.534404  9.434095 7.439123  1
47.158828  9.262397 8.349875  1
47.266137  8.362966 8.773560  1
46.890566  8.191264 9.684304  1
46.997875  7.291833 10.107989  1
46.622299  7.120135 11.018741  1
46.729608  6.220704 11.442426  1
46.354037  6.049002 12.353170  1
46.461346  5.149571 12.776855  1
46.085770  4.977872 13.687607  1
46.193079  4.078441 14.111292  1
1.137362  49.742383 0.000920  1
0.673182  48.860836 0.087015  1
1.143085  48.087850 0.513249  1
2.077176  48.196407 0.853392  1
2.547087  47.423418 1.279629  1
3.481170  47.531979 1.619768  1
3.951081  46.758989 2.046006  1
4.885164  46.867550 2.386144  1
5.355075  46.094561 2.812382  1
6.289158  46.203122 3.152521  1
6.759069  45.430132 3.578759  1
7.693152  45.538694 3.918897  1
8.163063  44.765704 4.345135  1
9.097146  44.874265 4.685274  1
9.567057  44.101276 5.111512  1
10.501140  44.209837 5.451650  1
10.971051  43.436847 5.877888  1
48.693279  1.198275 -0.000000  1
48.641854  0.382456 0.576016  1
47.751474  -0.000000 0.822881  1
46.912509  0.433363 0.493728  1
46.022119  0.050908 0.740592  1
45.183164  0.484271 0.411440  1
44.292774  0.101815 0.658304  1
43.453819  0.535178 0.329152  1
42.563429  0.152723 0.576016  1
41.724474  0.586086 0.246864  1
40.834084  0.203630 0.493728  1
39.995129  0.636993 0.164576  1
39.104739  0.254538 0.411440  1
38.265784  0.687901 0.082288  1
37.375394  0.305445 0.329152  1
36.536439  0.738808 -0.000000  1
35.646049  0.356352 0.246864  1
11.969486  28.186377 33.587630  1
13.462098  28.024060 33.671788  1
14.264818  29.165985 33.734847  1
15.634084  29.008532 33.821827  1
16.252830  27.811818 33.855894  3
15.490724  26.706529 33.801761  1
16.122011  25.470986 33.859156  1
15.405833  24.272665 33.820501  1
14.023858  24.302449 33.705957  1
13.364965  25.529618 33.641056  1
14.080817  26.748990 33.699668  1
11.676507  29.241147 33.626226  4
11.484228  27.684028 34.430705  4
11.593297  27.772789 32.646469  4
13.837303  30.162911 33.721836  4
16.293609  29.870070 33.873846  4
17.205765  25.441618 33.944483  4
15.932435  23.323968 33.880785  4
13.456973  23.375812 33.671653  4
12.282048  25.525467 33.549756  4
47.154444  8.082658 46.168189  1
47.904544  6.926576 45.587630  1
48.390341  7.049538 44.322980  3
49.073311  6.026963 43.764018  1
49.334217  4.817156 44.385592  1
48.844372  4.664663 45.690163  1
48.892347  3.607651 46.654839  1
49.450759  2.312598 46.665781  1
49.312346  1.512741 47.806267  1
48.630334  1.984186 48.925444  1
48.068262  3.263790 48.940004  1
48.216291  4.049224 47.790790  1
47.774926  5.323467 47.526538  3
47.251310  5.890303 48.176916  4
48.140432  5.723228 46.261670  1
47.097842  8.911305 45.455648  4
47.656062  8.440203 47.072632  4
46.134835  7.778761 46.424227  4
49.423949  6.212943 42.752344  4
49.888573  4.034357 43.883733  4
49.984329  1.935803 45.798365  4
49.742063  0.514053 47.816693  4
48.533225  1.347840 49.802262  4
47.537367  3.627138 49.813787  4
3.267761  8.141829 44.400780  1
2.565797  7.238956 45.369386  1
2.251571  5.933421 45.026072  1
1.728112  5.076214 45.999257  1
1.465993  3.731979 45.681963  1
1.040397  2.826518 46.666883  1
0.838133  1.467004 46.412756  1
0.471944  0.557943 47.347120  3
0.283697  1.023850 48.596356  1
0.428306  2.353903 48.954558  1
0.820607  3.278276 47.976729  1
1.029724  4.637687 48.278285  1
1.503284  5.557428 47.306472  1
1.795929  6.920414 47.545499  1
1.636934  7.579555 48.884295  1
2.330011  7.738351 46.599624  3
3.346269  7.691228 43.406521  4
4.281450  8.342378 44.763813  4
2.730481  9.089848 44.307426  4
2.454283  5.573973 44.021778  4
1.633350  3.374577 44.669688  4
0.988252  1.052120 45.419806  4
0.008249  0.274984 49.334094  4
0.258431  2.656134 49.983097  4
0.848066  4.967220 49.295975  4
0.975308  7.041127 49.565016  4
1.206258  8.578759 48.753724  4
2.617958  7.685529 49.359015  4
1.101831  34.819128 48.195289  1
1.984384  36.030451 48.182571  1
1.488566  37.282162 47.847634  1
2.337473  38.413735 47.841387  1
1.911436  39.735401 47.511183  1
0.596390  39.998667 47.165149  2
2.770233  40.852300 47.510487  1
2.308321  42.084197 47.189068  3
3.158263  43.127962 47.199608  1
4.493149  43.021331 47.522155  1
4.994134  41.763583 47.856710  1
6.452728  41.638699 48.210716  1
4.118087  40.645785 47.853589  1
4.547056  39.340780 48.180899  1
3.690738  38.215779 48.185149  1
4.109966  36.903268 48.514101  1
5.516221  36.536905 48.901209  1
3.273107  35.835100 48.511691  3
0.070909  35.062688 47.921218  4
1.093480  34.377042 49.196436  4
1.478691  34.078304 47.483289  4
0.437461  37.354394 47.594777  4
0.059567  39.199330 47.181274  4
2.718321  44.084070 46.931963  4
5.123687  43.903429 47.511121  4
6.965955  42.604449 48.158125  4
6.956677  40.961984 47.512857  4
6.564961  41.263882 49.233382  4
5.591171  39.207676 48.441311  4
6.217033  37.371027 48.924487  4
5.908398  35.801245 48.191226  4
5.512464  36.088585 49.900309  4
1.211401  11.301761 19.155494  1
1.557131  9.903506 18.615051  1
1.062726  9.796897 17.168780  1
3.075484  9.653256 18.717768  1
3.691668  9.714049 20.049210  3
3.559331  8.987598 21.188864  1
4.448637  9.111812 22.036940  2
2.419308  7.968094 21.379939  1
1.836659  8.054150 22.817657  1
1.210190  9.433173 23.065392  1
0.774847  6.979496 23.098108  1
3.023203  6.661455 21.123381  3
3.185542  6.029189 19.922919  1
4.020730  5.131660 19.847583  2
2.391800  6.506026 18.683124  1
1.871245  5.273525 17.890628  1
0.890017  4.441614 18.723489  1
1.187269  5.673725 16.576993  1
3.351892  7.250730 17.868646  3
3.754174  8.543090 17.887370  1
4.787678  8.804809 17.259342  2
0.132980  11.485414 19.100744  4
1.711636  12.086653 18.576365  4
1.511885  11.409593 20.202563  4
0.979620  9.190792 19.199379  4
1.615378  10.470748 16.506008  4
-0.000195  10.053975 17.102457  4
1.172768  8.777896 16.788423  4
3.498979  10.555443 18.243330  4
4.567481  10.229178 20.071361  4
1.615706  8.142373 20.680121  4
2.642696  7.914587 23.549671  4
0.351413  9.603891 22.406845  4
1.931892  10.238059 22.898780  4
0.862746  9.518159 24.100920  4
0.000009  6.960909 22.324115  4
0.278017  7.167712 24.058101  4
1.223037  5.982843 23.159936  4
3.716162  6.351447 21.799730  4
1.553607  7.142213 18.949745  4
2.719115  4.625198 17.629869  4
-0.000260  5.023063 18.984467  4
1.349174  4.083634 19.649704  4
0.564284  3.558434 18.162311  4
0.364146  6.373688 16.753305  4
0.774673  4.792491 16.072081  4
1.894310  6.140573 15.883950  4
4.047573  6.677307 17.399357  4
3.891610  7.650965 15.093883  1
3.580718  6.551106 14.064136  1
2.293678  6.921083 13.319725  1
4.768535  6.376821 13.096000  1
6.070782  6.011388 13.667602  3
6.541097  4.928419 14.338449  1
7.767967  4.806929 14.412989  2
5.602119  3.836263 14.887145  1
6.051310  3.382251 16.303485  1
5.963067  4.547817 17.298074  1
5.217721  2.212443 16.849064  1
5.680266  2.740084 13.922727  3
4.957409  2.574233 12.775036  1
5.396578  1.812774 11.917082  2
3.669052  3.399981 12.545325  1
2.565739  2.488059 11.937721  1
2.175850  1.359220 12.898060  1
1.303098  3.274551 11.562503  1
4.038662  4.439497 11.584841  3
4.586454  5.667978 11.736942  1
5.042311  6.195465 10.714691  2
3.060167  7.773981 15.796227  4
4.058793  8.617662 14.604773  4
4.784553  7.408183 15.678676  4
3.369907  5.645306 14.628056  4
2.430385  7.816109 12.704091  4
1.479939  7.117808 14.026419  4
1.966167  6.105939 12.669017  4
4.961491  7.412222 12.765707  4
6.848829  6.540980 13.284103  4
4.584576  4.191192 14.954423  4
7.096580  3.048820 16.268094  4
4.927767  4.881648 17.428597  4
6.557445  5.404300 16.967003  4
6.346217  4.246886 18.279347  4
4.142958  2.414346 16.786591  4
5.457628  2.024896 17.903163  4
5.425836  1.286355 16.304030  4
6.574437  2.259280 13.867673  4
3.299155  3.850388 13.461130  4
2.944553  2.024867 11.016221  4
1.752800  1.757069 13.826247  4
3.035035  0.732272 13.154158  4
1.425753  0.706412 12.437382  4
0.900549  3.816877 12.424132  4
0.521024  2.598613 11.197520  4
1.503749  3.996018 10.764137  4
4.185467  4.109059 10.634958  4
14.793434  0.925385 35.139576  1
14.578238  1.965011 34.026205  1
15.936128  2.316866 33.409898  1
13.597582  1.417965 32.969028  1
12.248501  1.045461 33.413256  3
11.200408  1.731131 33.938053  1
10.100076  1.170399 33.918650  2
11.340601  3.183772 34.433767  1
10.564757  3.390728 35.763862  1
11.153156  2.511036 36.875377  1
10.575470  4.851071 36.241630  1
10.794494  4.012283 33.359917  3
11.437611  4.486868 32.251588  1
10.756862  4.844039 31.293577  2
12.983894  4.482961 32.192583  1
13.486049  5.816351 31.569688  1
13.101443  7.021991 32.434009  1
15.005859  5.824157 31.360562  1
13.337635  3.363199 31.320382  3
13.520464  2.043526 31.559994  1
13.534501  1.303052 30.568759  2
15.477690  1.308675 35.904169  4
15.225496  0.000000 34.741248  4
13.851234  0.673006 35.636400  4
14.207054  2.866759 34.507861  4
16.369289  1.461824 32.880710  4
16.644574  2.628972 34.185130  4
15.845484  3.145684 32.702800  4
14.027323  0.428880 32.733625  4
11.923349  0.159972 33.034994  4
12.375101  3.442194 34.603833  4
9.515040  3.100812 35.625801  4
12.184225  2.799927 37.107251  4
11.151096  1.453888 36.594504  4
10.562709  2.603936 37.793528  4
11.590224  5.262394 36.271132  4
10.157628  4.930337 37.253053  4
9.965334  5.487254 35.592768  4
9.794475  3.926979 33.197345  4
13.433605  4.351774 33.171837  4
13.022653  5.953129 30.582892  4
13.566118  6.964341 33.423726  4
12.018009  7.093638 32.567758  4
13.430508  7.953664 31.959951  4
15.538140  5.630965 32.297536  4
15.338721  6.797335 30.981255  4
15.312706  5.070797 30.628130  4
13.142716  3.513285 30.334227  4
18.934442  2.727350 14.408311  1
20.039346  3.157163 15.030607  1
20.440548  4.625479 15.076364  1
19.476858  5.806119 15.182251  1
18.624216  6.012101 14.033894  1
19.451780  6.121882 12.800894  1
18.413243  6.160994 11.604753  1
17.282215  4.727258 11.630652  1
16.093675  4.555243 12.601933  1
15.087291  5.677711 13.006390  1
15.521289  7.080968 13.534677  1
16.003101  8.220728 12.580505  1
17.245762  8.009904 11.791175  1
17.083795  6.666943 10.411181  1
18.362054  5.458560 9.726209  1
18.336722  3.979985 9.201776  1
19.741565  3.407872 8.911439  1
20.941825  2.168493 15.461755  2
21.916976  2.456776 16.484845  1
21.383096  2.071805 17.905197  1
21.225570  0.613037 18.357641  1
23.301455  1.803503 16.210870  1
24.134391  2.260387 15.088282  2
24.729409  3.501056 15.095835  1
24.337064  4.433151 15.782245  2
25.883736  3.597887 14.062694  1
27.370151  3.930709 14.429908  1
27.788647  5.315283 14.983282  1
29.313677  5.446181 15.268704  1
29.793039  6.807518 15.839548  1
29.267434  7.282828 17.199516  1
27.741453  7.494108 17.449611  1
26.601050  8.374883 16.886127  1
25.876687  8.744312 15.792460  1
25.854703  8.633059 14.259125  1
24.664339  7.937374 13.484649  1
24.774652  8.094032 11.921371  1
23.616652  7.463994 11.124106  1
23.786665  7.532320 9.588537  1
22.685260  6.860963 8.747198  1
22.621057  5.339792 8.877689  1
22.264701  4.782942 10.243391  1
18.245181  3.399326 13.944579  4
18.693334  1.683311 14.260074  4
21.068747  4.779810 14.192120  4
21.042297  4.824929 15.945642  4
20.071248  6.729348 15.214048  4
18.839395  5.770826 16.062366  4
18.015563  6.886936 14.232248  4
17.897538  5.228579 13.950621  4
20.035713  5.233613 12.548060  4
20.065616  7.037010 12.723948  4
19.380311  6.571211 10.978694  4
18.553136  7.181468 10.927915  4
17.842275  3.798853 11.600731  4
16.609411  4.628153 10.654128  4
16.552414  4.155914 13.478288  4
15.497061  3.680519 12.230970  4
14.552925  5.213334 13.850164  4
14.324539  5.828485 12.230314  4
16.160548  6.920689 14.405622  4
14.631963  7.538573 13.988537  4
16.234734  9.120635 13.183352  4
15.311036  8.407055 11.789784  4
17.929179  7.853463 12.649455  4
17.826128  8.848600 11.398789  4
16.294777  6.899948 9.651959  4
16.316283  6.289811 11.243872  4
19.116946  4.963571 10.544314  4
19.203681  5.996626 9.265969  4
17.713498  4.079963 8.350377  4
17.980868  3.179040 9.870320  4
20.185653  3.952500 8.086675  4
19.669552  2.345015 8.672998  4
20.403767  3.413348 9.779082  4
22.113485  3.519725 16.524660  4
20.414385  2.560563 18.060546  4
22.080134  2.519135 18.624613  4
20.637658  -0.016358 17.685166  4
20.700969  0.607031 19.327072  4
22.193479  0.132296 18.539586  4
23.157189  0.730083 16.043888  4
23.917338  1.912247 17.109886  4
25.543785  4.263432 13.261432  4
25.938130  2.599724 13.601901  4
27.932370  3.811231 13.491998  4
27.746588  3.161110 15.111816  4
27.245215  5.464905 15.906698  4
27.511386  6.108645 14.283901  4
29.864672  5.290553 14.326682  4
29.651719  4.637275 15.930775  4
29.633900  7.603685 15.109677  4
30.892729  6.725069 15.943376  4
29.838571  8.174167 17.510556  4
29.598780  6.526136 17.938440  4
27.755152  7.788612 18.520015  4
27.310463  6.496473 17.520089  4
26.113460  8.793710 17.784999  4
25.032415  9.390293 16.078154  4
26.803250  8.239170 13.897867  4
25.807358  9.681046 13.921813  4
23.694093  8.348765 13.797081  4
24.648564  6.868981 13.732341  4
25.703178  7.609053 11.594482  4
24.825015  9.147603 11.638299  4
22.645143  7.891657 11.393884  4
23.621100  6.445955 11.466464  4
24.750104  7.101980 9.288504  4
23.809204  8.590106 9.301963  4
22.881475  7.078482 7.681990  4
21.707273  7.313623 8.951760  4
23.567684  4.899067 8.555277  4
21.876925  4.988115 8.157924  4
22.986646  4.936006 11.027124  4
22.258094  3.693218 10.201958  4
21.308516  5.175571 10.594832  4
22.409101  12.064174 14.961292  1
22.219376  11.462982 16.142553  1
22.645660  12.089435 17.463480  1
22.593031  13.579284 17.797245  1
23.497217  14.414053 17.039775  1
24.888677  13.899077 17.165630  1
25.748087  14.772296 16.160769  1
25.075776  14.726080 14.463313  1
23.820316  15.489783 13.987727  1
23.463443  16.962925 14.360311  1
23.431425  17.502583 15.824660  1
24.730208  17.899014 16.597735  1
25.734327  16.841866 16.890784  1
26.646567  16.166943 15.326669  1
27.313885  14.441609 14.950858  1
27.428665  13.539520 13.672220  1
27.918595  12.106405 13.974452  1
21.802665  10.120344 16.103838  2
21.170089  9.511948 17.248583  1
19.610690  9.617742 17.160773  1
18.784305  8.789302 16.166640  1
21.619284  8.042027 17.485582  1
22.995511  7.739792 17.906750  2
23.450608  8.073564 19.161678  1
22.941007  8.941391 19.855275  2
24.736294  7.290770 19.540457  1
24.858710  6.344966 20.783644  1
24.794627  6.883578 22.234229  1
24.953040  5.782651 23.323809  1
24.882512  6.258912 24.799305  1
23.595943  6.909742 25.321657  1
23.022530  8.207449 24.671302  1
23.474719  9.669687 24.445066  1
24.401559  10.507834 23.901223  1
25.799836  10.517526 23.261923  1
26.043428  11.021122 21.782797  1
27.570438  11.101275 21.405485  1
27.859987  11.622818 19.985028  1
29.354477  11.599558 19.588159  1
29.689443  12.053056 18.155051  1
29.172120  11.126437 17.055567  1
27.666592  10.988345 16.927004  1
22.832185  13.042166 14.882485  4
22.225383  11.589593 14.006753  4
23.671308  11.741666 17.629140  4
22.038512  11.717860 18.270220  4
22.946247  13.709994 18.829144  4
21.598512  14.010298 17.711424  4
23.373397  15.431961 17.391443  4
23.192839  14.476336 16.013920  4
25.053659  12.893871 16.770325  4
25.346409  14.014189 18.164332  4
26.683591  14.316502 16.803056  4
26.670255  15.343980 16.745431  4
25.016487  13.704349 14.104077  4
25.789778  15.220771 13.649946  4
23.020599  14.845832 14.277005  4
23.795286  15.405837 12.869232  4
22.422477  17.042411 14.009286  4
24.029405  17.677871 13.747647  4
22.742751  16.872579 16.391853  4
22.892900  18.459463 15.798922  4
24.451119  18.270011 17.603409  4
25.336885  18.582902 16.047143  4
25.069793  16.180886 17.482118  4
26.458928  16.947067 17.702012  4
27.210523  16.953849 14.764538  4
25.577711  16.481816 14.898793  4
26.620904  13.511339 15.323077  4
28.094149  14.156940 15.671845  4
28.088192  14.117907 13.077430  4
26.513378  13.274296 13.118142  4
28.938582  12.146745 14.337864  4
27.857908  11.493555 13.073100  4
27.280199  11.564655 14.674669  4
21.448277  10.037395 18.152230  4
19.338218  10.667951 17.005091  4
19.229731  9.337290 18.150593  4
19.104149  8.867734 15.124743  4
17.742722  9.148508 16.199990  4
18.743642  7.730795 16.447662  4
21.470660  7.475019 16.559655  4
20.965408  7.600475 18.245085  4
25.562777  8.010117 19.541384  4
24.931847  6.631251 18.681148  4
25.849278  5.875462 20.692098  4
24.127128  5.536139 20.685810  4
23.829934  7.358473 22.353580  4
25.573955  7.632038 22.401216  4
25.935553  5.298883 23.197892  4
24.220309  4.979091 23.167805  4
25.721393  6.919609 25.026634  4
25.047911  5.356453 25.419875  4
23.674508  7.026371 26.416031  4
22.802742  6.141449 25.227111  4
22.100006  8.340300 25.274615  4
22.597318  7.899376 23.717216  4
22.614374  10.274428 24.784515  4
24.078567  11.557256 23.979294  4
26.283008  9.551914 23.401685  4
26.363684  11.236609 23.877791  4
25.604622  12.016616 21.625718  4
25.541935  10.341280 21.083238  4
27.993677  10.091509 21.479385  4
28.110169  11.746538 22.101908  4
27.464736  12.631440 19.823894  4
27.287853  10.955617 19.367665  4
29.775234  10.596691 19.731859  4
29.891371  12.269049 20.270122  4
30.788673  12.085278 18.049518  4
29.359643  13.085321 17.985142  4
29.606860  10.130802 17.173898  4
29.565119  11.504144 16.107748  4
27.158678  10.498315 17.739880  4
27.432094  10.299868 16.114434  4
27.190306  11.959435 16.778360  4
12.988419  13.550699 4.741339  1
12.686290  13.546329 6.045757  1
12.739604  12.286364 6.899369  1
13.760575  11.159117 6.755321  1
13.671640  10.398353 5.529973  1
12.288139  9.875756 5.356711  1
12.267033  9.224774 3.912197  1
12.797323  10.402375 2.620863  1
14.258048  10.831483 2.360570  1
15.492897  9.876796 2.353745  1
15.824238  8.880928 3.509182  1
15.094452  7.507947 3.664020  1
13.631572  7.506088 3.931744  1
12.558538  8.121655 2.447211  1
10.924562  9.066715 2.429716  1
10.283231  10.177538 1.526044  1
8.951893  10.728105 2.082470  1
12.102216  14.718299 6.558756  2
12.126149  14.994708 7.974300  1
13.360332  15.876403 8.361648  1
13.458329  17.363210 7.991068  1
10.802912  15.623021 8.496676  1
9.562073  14.834277 8.527163  2
9.401085  13.785116 9.402779  1
10.334334  13.188249 9.919199  2
7.908600  13.394112 9.572579  1
7.142101  13.412929 10.939024  1
7.497099  12.442672 12.092707  1
6.605845  12.613613 13.357920  1
6.923157  11.678380 14.555225  1
8.296002  11.760183 15.233679  1
9.611614  11.504614 14.433895  1
10.258552  10.348112 13.635289  1
10.147359  9.477134 12.593021  1
9.136156  8.933732 11.570202  1
9.343768  9.104644 10.011855  1
8.274380  8.321904 9.160811  1
8.457661  8.427702 7.634785  1
7.344195  7.742821 6.808541  1
7.448745  7.873731 5.277660  1
7.255031  9.292528 4.744181  1
8.287905  10.326061 5.153073  1
13.328733  12.674318 4.233577  4
12.842771  14.403114 4.091494  4
11.738438  11.847289 6.827132  4
12.914687  12.537011 7.930897  4
13.547947  10.406202 7.526406  4
14.791244  11.488120 6.863430  4
14.430154  9.624945 5.570401  4
13.976439  10.989081 4.689115  4
11.509028  10.635743 5.260109  4
11.988517  9.086830 6.069449  4
11.243823  8.700670 4.329095  4
11.941160  8.037295 3.964592  4
12.172796  11.289115 2.633389  4
12.625081  10.008513 1.511227  4
14.413289  11.608997 3.074205  4
14.260743  11.398580 1.392532  4
16.333152  10.588892 2.347639  4
15.570549  9.331490 1.403256  4
15.896193  9.460745 4.431960  4
16.864177  8.559304 3.362979  4
15.513585  6.974538 4.539641  4
15.118865  6.932325 2.765701  4
13.664036  8.082058 4.877989  4
13.133456  6.650424 4.394262  4
12.683872  7.506345 1.520420  4
13.579310  8.724539 2.308525  4
10.806421  9.939040 3.271894  4
10.128203  8.482751 2.913935  4
10.199526  9.662041 0.603798  4
10.807302  11.139625 1.404253  4
8.206733  9.941572 2.069395  4
8.620555  11.578565 1.483606  4
9.040534  11.159662 3.081093  4
12.237247  14.074943 8.532646  4
14.269187  15.393028 7.985153  4
13.421312  15.851504 9.456721  4
13.309942  17.584010 6.931243  4
14.471855  17.715714 8.243145  4
12.772478  17.980329 8.582537  4
10.568473  16.504854 7.889769  4
10.967784  15.969449 9.522430  4
7.773336  12.421214 9.087080  4
7.353938  14.107316 8.943842  4
6.095052  13.190916 10.685174  4
7.150527  14.433776 11.334985  4
8.527492  12.633536 12.361526  4
7.410399  11.404123 11.762058  4
5.556507  12.421223 13.080258  4
6.620722  13.657331 13.700514  4
6.731437  10.637686 14.286677  4
6.175885  11.918417 15.336802  4
8.276131  11.150214 16.152903  4
8.377202  12.788226 15.639779  4
10.365141  11.688289 15.228343  4
9.756729  12.385549 13.810285  4
11.290018  10.292229 14.027826  4
11.084913  8.920368 12.442323  4
8.127500  9.243227 11.838945  4
9.174137  7.842620 11.719637  4
10.339959  8.756538 9.704189  4
9.288555  10.169653 9.755396  4
7.283232  8.725665 9.403349  4
8.278184  7.259307 9.412906  4
9.430342  8.046948 7.305506  4
8.460506  9.489155 7.470645  4
6.356997  8.112439 7.112269  4
7.366790  6.671866 7.041111  4
6.655995  7.253972 4.821668  4
8.388802  7.442447 4.912293  4
6.263160  9.660278 5.018481  4
7.248456  9.225812 3.652862  4
8.309908  10.596115 6.194927  4
8.032290  11.290405 4.712666  4
9.295408  10.012747 4.872482  4
6.575329  36.411416 18.581250  1
7.533567  36.353362 18.861279  1
7.893374  35.500067 19.238676  1
7.294942  34.704827 19.336043  1
7.654748  33.851533 19.713439  1
7.056325  33.056297 19.810807  1
7.416131  32.203003 20.188203  1
6.817699  31.407763 20.285570  1
7.177505  30.554468 20.662966  1
6.579082  29.759233 20.760334  1
6.938888  28.905938 21.137730  1
6.340456  28.110698 21.235097  1
6.700263  27.257404 21.612493  1
6.101831  26.462164 21.709860  1
6.461637  25.608870 22.087257  1
5.863214  24.813634 22.184624  1