&CONTROL
    calculation = "md"
    dt          =  1.03353e+01
    max_seconds =  6.04800e+05
    nstep       = 5000
    pseudo_dir  = "C:\Users\Colin\.burai\.pseudopot"
/

&SYSTEM
    a           =  4.03893e+00
    degauss     =  1.00000e-02
    ecutrho     =  1.00000e+02
    ecutwfc     =  2.50000e+01
    ibrav       = 1
    nat         = 4
    ntyp        = 1
    occupations = "smearing"
    smearing    = "gaussian"
/

&ELECTRONS
    conv_thr         =  1.00000e-06
    electron_maxstep = 200
    mixing_beta      =  7.00000e-01
    startingpot      = "atomic"
    startingwfc      = "atomic+random"
/

&IONS
    ion_dynamics = "verlet"
/

&CELL
/

K_POINTS {automatic}
 3  3  3  0 0 0

ATOMIC_SPECIES
Al     26.98154  Al.pbe-rrkj.UPF

ATOMIC_POSITIONS {angstrom}
Al      0.000000   0.000000   0.000000
Al      0.000000   2.019465   2.019465
Al      2.019465   0.000000   2.019465
Al      2.019465   2.019465   0.000000


