&CONTROL
    pseudo_dir = "C:\Users\Colin\.burai\.pseudopot"
/

&SYSTEM
    a     =  4.03893e+00
    ibrav = 1
    nat   = 4
    ntyp  = 1
/

ATOMIC_SPECIES
Al     26.98154  Al.pbe-rrkj.UPF

ATOMIC_POSITIONS {angstrom}
Al      0.000000   0.000000   0.000000
Al      0.000000   2.019465   2.019465
Al      2.019465   0.000000   2.019465
Al      2.019465   2.019465   0.000000


