NumberOfAtoms 24
SpinPolarized yes
#FixSpin .true.
#TotalSpin 
NumberOfSpecies 3

 
MD.TypeOfRun  nose
MD.FinalTimeStep 250
MD.LengthTimeStep 1.0  fs
MD.InitialTemperature 300 K 
MD.TargetTemperature  300  K


%block ChemicalSpeciesLabel
1  6  c
2  7  n
3  1  h
%endblock ChemicalSpeciesLabel

PAO.BasisSize dzp 
 PAO.EnergyShift 0.02 Ry 
 
MeshCutoff          100 Ry
MaxSCFIterations    100  
DM.NumberPulay       3  
DM.Tolerance         1e-3
WriteDenchar	.true.

%block ProjectedDensityOfStates
-10.0 10.0 0.200 500 eV
%endblock ProjectedDensityOfStates
NetCharge 0.00

%block BandLines
1  1.000  1.000 1.000  L
20 0.00   0.00   0.00  \Gamma
25 2.00   0.000  0.00  X
30 2.00   2.00   2.00  \Gamma
%endblock BandLines


LongOutput .true.
WriteCoorXmol .true.
LatticeConstant 1 Ang
%block LatticeVectors
  14.69106 0.0 0.0
  0.0 16.60925 0.0
  0.0 0.0 9.78103
%endblock LatticeVectors


 

#UseSaveData .true.  
%block kgrid_Monkhorst_Pack
1 0 0 0.0 
 0 1 0 0.0 
 0 0 1 0.0 

%endblock kgrid_Monkhorst_Pack
WriteMDXmol .true.
AtomicCoordinatesFormat Ang
%block AtomicCoordinatesAndAtomicSpecies
0.88978  -0.11337 -0.01823  1 
2.38383  -0.04980 -0.01828  1 
3.07388  -1.22210 -0.01849  2 
4.42454  -1.20582 -0.01864  1 
5.20135  -0.05925 -0.01853  1 
4.51449  1.16277 -0.01843  1 
4.92324  2.53503 -0.01809  1 
6.17369  3.18732 -0.01814  1 
6.22042  4.58641 -0.01809  1 
5.04643  5.33588 -0.01805  1 
3.79491  4.71361 -0.01842  1 
3.76758  3.31405 -0.01815  1 
2.69946  2.44950 -0.01813  2 
1.73289  2.73969 -0.01814  3 
3.12087  1.13965 -0.01830  1 
0.54118  -1.15070 -0.01819  3 
0.49235  0.38317 -0.90872  3 
0.49244  0.38319 0.87231  3 
4.89154  -2.18711 -0.01890  3 
6.28264  -0.11178 -0.01865  3 
7.09467  2.61210 -0.01819  3 
7.18341  5.09118 -0.01808  3 
5.10314  6.42214 -0.01801  3 
2.88268  5.30115 -0.01798  3 
 %endblock AtomicCoordinatesAndAtomicSpecies


