NumberOfAtoms 136
SpinPolarized yes
#FixSpin .true.
#TotalSpin 
NumberOfSpecies 4

 
MD.TypeOfRun  nose
MD.FinalTimeStep 10
MD.LengthTimeStep 1.0  fs
MD.InitialTemperature 300 K 
MD.TargetTemperature  300  K


%block ChemicalSpeciesLabel
1  6  C
2  7  N
3  1  H
4  8  O
%endblock ChemicalSpeciesLabel

PAO.BasisSize dzp 
 PAO.EnergyShift 0.02 Ry 
 
MeshCutoff          100 Ry
MaxSCFIterations    100  
DM.NumberPulay       3  
DM.Tolerance         1e-3
WriteDenchar	.true.

%block ProjectedDensityOfStates
-10.0 10.0 0.200 500 eV
%endblock ProjectedDensityOfStates
NetCharge 0.00

%block BandLines
1  1.000  1.000 1.000  L
20 0.00   0.00   0.00  \Gamma
25 2.00   0.000  0.00  X
30 2.00   2.00   2.00  \Gamma
%endblock BandLines


LongOutput .true.
WriteCoorXmol .true.
LatticeConstant 1 Ang
%block LatticeVectors
  34.944834 0.0 0.0
  0.0 27.825682 0.0
  0.0 0.0 22.154948
%endblock LatticeVectors


 

#UseSaveData .true.  
%block kgrid_Monkhorst_Pack
1 0 0 0.0 
 0 1 0 0.0 
 0 0 1 0.0 

%endblock kgrid_Monkhorst_Pack
WriteMDXmol .true.
AtomicCoordinatesFormat Ang
%block AtomicCoordinatesAndAtomicSpecies
14.326124  15.798794 4.378562  1 
15.467531  16.455126 3.662637  1 
15.616011  17.833124 3.672594  1 
16.767238  18.402118 3.118676  1 
16.961181  19.793145 3.180142  1 
18.154456  20.377362 2.726441  1 
18.419783  21.745448 2.834643  1 
19.575990  22.335624 2.449415  2 
20.513246  21.528767 1.916844  1 
20.346847  20.165672 1.736448  1 
19.148430  19.570185 2.153229  1 
18.927364  18.184072 2.041489  1 
17.746803  17.570461 2.535817  1 
17.478106  16.181954 2.516948  1 
18.426536  15.162028 1.958064  1 
16.368341  15.636388 3.082391  2 
13.601629  16.530898 4.748544  3 
14.712433  15.239363 5.237270  3 
13.805650  15.107314 3.709915  3 
14.863392  18.455320 4.147292  3 
16.195881  20.425055 3.622241  3 
17.692042  22.426961 3.266556  3 
21.439908  22.019478 1.631486  3 
21.147935  19.578667 1.298522  3 
19.706488  17.579059 1.589593  3 
19.169772  15.578264 1.275874  3 
17.866214  14.410583 1.390342  3 
18.947067  14.657633 2.778815  3 
3.892579  18.018323 13.521658  1 
4.367035  16.766115 12.871383  1 
5.634178  16.444553 12.563415  1 
6.818046  17.356747 12.801759  1 
5.975260  15.144745 11.893062  1 
5.375341  13.847513 12.455247  1 
5.970035  12.573281 11.823776  1 
7.426107  12.177242 12.211574  1 
7.827539  10.938171 11.405947  1 
8.468580  13.299031 12.043608  1 
9.943324  12.909160 12.259406  1 
10.813369  14.156373 12.043540  1 
12.325923  13.954699 12.256500  1 
12.907687  12.959062 11.248553  1 
13.140314  15.279529 12.282422  1 
13.174537  16.147125 11.005688  1 
11.843942  16.807003 10.640421  1 
11.795185  17.541034 9.292544  1 
12.212801  16.636719 8.129349  1 
10.359192  18.032481 9.059527  1 
3.068040  17.789600 14.202161  3 
3.533530  18.712305 12.757095  3 
4.672151  18.505055 14.107275  3 
3.575000  16.053560 12.622690  3 
6.540305  18.413838 12.804123  3 
7.572277  17.242237 12.016283  3 
7.290529  17.117130 13.762827  3 
7.047973  15.097301 11.972248  3 
5.782405  15.215037 10.815402  3 
4.297080  13.843729 12.243829  3 
5.477838  13.799804 13.545290  3 
5.866518  12.633669 10.733356  3 
5.322166  11.737258 12.131532  3 
7.411370  11.893450 13.271681  3 
7.948586  11.176189 10.346008  3 
7.070918  10.148439 11.496380  3 
8.768936  10.521147 11.775438  3 
8.285073  14.035197 12.833120  3 
8.365158  13.759856 11.061674  3 
10.231685  12.144136 11.529025  3 
10.089490  12.501289 13.264861  3 
10.455658  14.976851 12.669089  3 
10.637292  14.396117 10.996367  3 
12.445192  13.515770 13.259523  3 
13.773866  13.360307 10.714383  3 
12.176518  12.652318 10.495008  3 
13.242198  12.055374 11.769934  3 
14.181055  15.009515 12.510898  3 
12.808924  15.895302 13.128342  3 
13.559869  15.548660 10.176010  3 
13.908841  16.948349 11.167518  3 
11.533028  17.472127 11.453511  3 
11.063173  16.066111 10.554763  3 
12.459507  18.412515 9.330571  3 
13.301206  16.637304 8.011064  3 
11.778660  16.975139 7.181328  3 
11.892281  15.599594 8.284765  3 
9.670314  17.184531 8.914199  3 
10.306855  18.659645 8.168611  3 
9.995201  18.614954 9.909531  3 
29.154669  24.591732 4.555945  1 
28.331565  25.390127 3.530377  1 
29.246019  26.417724 2.855603  1 
27.691369  24.435482 2.502091  1 
26.779975  23.399147 3.003576  2 
25.579215  23.419007 3.637482  1 
24.936177  22.364544 3.649154  4 
24.984291  24.716137 4.219781  1 
24.335316  24.452183 5.606532  1 
25.391556  23.985907 6.617711  1 
23.624909  25.688287 6.179547  1 
23.993960  25.160176 3.240040  2 
24.194401  25.928701 2.128098  1 
23.345864  25.898280 1.240498  4 
25.503466  26.739064 1.972685  1 
25.179198  28.152180 1.410513  1 
24.300264  28.954555 2.376024  1 
26.446440  28.962261 1.108046  1 
26.310720  25.993713 1.007011  2 
27.175312  24.961427 1.145729  1 
27.485955  24.363151 0.108130  4 
29.602917  25.258530 5.300373  3 
29.968828  24.041296 4.070305  3 
28.530557  23.870019 5.092495  3 
27.588750  25.950403 4.093616  3 
30.012874  25.930889 2.244301  3 
29.752861  27.036423 3.604343  3 
28.674416  27.092328 2.212701  3 
28.551160  23.825672 2.174565  3 
26.932495  22.484400 2.587795  3 
25.742431  25.475208 4.341971  3 
23.583513  23.657550 5.515048  3 
26.136347  24.767584 6.803707  3 
25.916390  23.092494 6.267260  3 
24.923051  23.732376 7.575043  3 
24.274141  26.570468 6.173249  3 
23.318226  25.511550 7.218086  3 
22.718057  25.924736 5.614105  3 
23.175452  24.566284 3.134771  3 
26.039945  26.839822 2.910996  3 
24.627524  28.049173 0.465921  3 
24.812013  29.125467 3.328750  3 
23.355256  28.443118 2.581555  3 
24.051762  29.931430 1.945916  3 
27.081600  29.054683 1.994948  3 
26.187873  29.974121 0.774838  3 
27.035131  28.500521 0.309045  3 
25.980000  26.043037 0.047213  3 
 %endblock AtomicCoordinatesAndAtomicSpecies

