NumberOfAtoms 1044
SpinPolarized yes
#FixSpin .true.
#TotalSpin 
NumberOfSpecies 4

 
MD.TypeOfRun  nose
MD.FinalTimeStep 21
MD.LengthTimeStep 0.5  fs
MD.InitialTemperature 300 K 
MD.TargetTemperature  300  K


%block ChemicalSpeciesLabel
1  6  C
2  1  H
3  7  N
4  8  O
%endblock ChemicalSpeciesLabel

PAO.BasisSize szp 
 PAO.EnergyShift 0.02 Ry 
 
MeshCutoff          100 Ry
MaxSCFIterations    100  
DM.NumberPulay       3  
DM.Tolerance         1e-3
WriteDenchar	.true.

%block ProjectedDensityOfStates
-10.0 10.0 0.200 500 eV
%endblock ProjectedDensityOfStates
NetCharge 0.00

%block BandLines
1  1.000  1.000 1.000  L
20 0.00   0.00   0.00  \Gamma
25 2.00   0.000  0.00  X
30 2.00   2.00   2.00  \Gamma
%endblock BandLines


LongOutput .true.
WriteCoorXmol .true.
LatticeConstant 1 Ang
%block LatticeVectors
  58.061113 0.0 0.0
  0.0 58.099408 0.0
  0.0 0.0 58.005995
%endblock LatticeVectors


 

#UseSaveData .true.  
%block kgrid_Monkhorst_Pack
1 0 0 0.0 
 0 1 0 0.0 
 0 0 1 0.0 

%endblock kgrid_Monkhorst_Pack
WriteMDXmol .true.
AtomicCoordinatesFormat Ang
%block AtomicCoordinatesAndAtomicSpecies
39.708434  7.216903 5.511352  1 
41.139371  7.372625 5.891034  1 
42.195096  6.753853 5.337442  1 
42.087158  5.732505 4.225845  1 
43.593990  6.994211 5.827883  1 
44.062290  8.442174 6.034915  1 
45.571323  8.562604 6.325427  1 
46.563465  8.311800 5.150636  1 
47.993959  8.403012 5.689935  1 
46.348774  6.987330 4.393627  1 
47.402626  6.620423 3.331453  1 
47.011305  5.275392 2.701472  1 
47.944008  4.770196 1.584026  1 
49.356113  4.497792 2.110764  1 
47.383751  3.549194 0.800225  1 
47.157604  2.226077 1.563221  1 
46.027650  2.262520 2.593375  1 
45.879781  1.021948 3.486161  1 
47.180772  0.681933 4.218978  1 
44.775931  1.295633 4.517910  1 
39.198776  8.180459 5.595444  2 
39.227318  6.505904 6.188178  2 
39.584706  6.871978 4.485045  2 
41.318469  8.066479 6.717710  2 
41.125805  5.212518 4.224790  2 
42.852828  4.955949 4.324126  2 
42.222076  6.220164 3.252041  2 
44.206062  6.533205 5.071526  2 
43.782746  6.402395 6.732100  2 
43.529108  8.858886 6.900610  2 
43.801630  9.072602 5.177248  2 
45.821880  7.924538 7.181856  2 
45.744333  9.594164 6.670875  2 
46.426519  9.130678 4.432815  2 
48.225331  7.559524 6.345504  2 
48.141398  9.330191 6.258205  2 
48.719342  8.412511 4.871161  2 
45.428634  7.091503 3.809304  2 
46.259240  6.163827 5.101494  2 
48.384322  6.517067 3.808381  2 
47.468171  7.403460 2.569075  2 
45.982581  5.316165 2.337443  2 
47.070549  4.587486 3.543094  2 
48.018902  5.584680 0.846500  2 
49.710196  3.493051 1.862321  2 
49.424570  4.605496 3.197154  2 
50.062202  5.206706 1.664371  2 
48.098789  3.332633 -0.006045  2 
46.453975  3.836527 0.292747  2 
48.099177  1.910586 2.020290  2 
46.906864  1.453801 0.822902  2 
45.082463  2.489100 2.087946  2 
46.181622  3.065954 3.298104  2 
45.576558  0.166806 2.870499  2 
47.829295  0.064918 3.588638  2 
46.987896  0.121093 5.140937  2 
47.740041  1.583878 4.495070  2 
45.082358  2.084200 5.224278  2 
44.558815  0.396985 5.096786  2 
43.851894  1.622574 4.034654  2 
2.768522  6.090950 31.195847  1 
2.429220  7.031139 31.226284  1 
2.968842  7.743145 31.675559  1 
3.847767  7.514971 32.094398  1 
4.387390  8.226985 32.543675  1 
5.266316  7.998811 32.962515  1 
5.805938  8.710816 33.411789  1 
6.684863  8.482642 33.830629  1 
7.224486  9.194657 34.279906  1 
8.103411  8.966483 34.698746  1 
8.643033  9.678488 35.148020  1 
9.521958  9.450314 35.566860  1 
10.061581  10.162329 36.016137  1 
10.940507  9.934155 36.434977  1 
11.480129  10.646160 36.884251  1 
12.359054  10.417986 37.303091  1 
12.898677  11.130001 37.752368  1 
13.777602  10.901826 38.171207  1 
14.317224  11.613832 38.620482  1 
15.196150  11.385657 39.039321  1 
15.735773  12.097672 39.488598  1 
16.614698  11.869498 39.907438  1 
43.786017  48.576855 17.611408  1 
43.474441  49.525442 17.555706  1 
43.166255  49.999739 18.380360  1 
43.169643  49.525448 19.260727  1 
42.861455  49.999745 20.085391  1 
42.864846  49.525455 20.965747  1 
42.556658  49.999752 21.790412  1 
42.560048  49.525461 22.670768  1 
42.251860  49.999758 23.495432  1 
42.255250  49.525468 24.375789  1 
41.947063  49.999764 25.200453  1 
41.950453  49.525474 26.080810  1 
41.642265  49.999771 26.905474  1 
41.645655  49.525480 27.785830  1 
41.337467  49.999777 28.610494  1 
41.340857  49.525487 29.490851  1 
41.032670  49.999783 30.315515  1 
50.020732  7.526173 13.200785  1 
49.419686  8.138403 12.687057  1 
49.165150  7.915571 11.746021  1 
49.511662  7.080502 11.318706  1 
49.257127  6.857664 10.377662  1 
49.603638  6.022602 9.950355  1 
49.349103  5.799763 9.009312  1 
49.695614  4.964701 8.582005  1 
49.441079  4.741863 7.640961  1 
49.787590  3.906800 7.213654  1 
49.533055  3.683962 6.272610  1 
49.879566  2.848899 5.845303  1 
49.625031  2.626061 4.904260  1 
49.971542  1.790998 4.476953  1 
49.717007  1.568160 3.535909  1 
50.063518  0.733098 3.108602  1 
49.808983  0.510259 2.167559  1 
0.976704  46.274627 3.691132  1 
1.798739  46.917016 4.774146  1 
1.283469  48.028493 5.446041  1 
2.040235  48.606873 6.446056  1 
3.254366  48.160569 6.823988  3 
3.757591  47.088739 6.188894  1 
4.998457  46.611392 6.589863  1 
5.589826  45.496461 5.991875  1 
4.936653  44.846312 4.955278  1 
3.691778  45.307958 4.529290  1 
3.075921  46.424726 5.142721  1 
0.002405  46.763193 3.581990  2 
0.787195  45.223274 3.930604  2 
1.492193  46.345803 2.728032  2 
0.308868  48.438284 5.203093  2 
1.676073  49.471545 6.993464  2 
5.517142  47.119991 7.399157  2 
6.556561  45.143002 6.340387  2 
5.389326  43.979709 4.480644  2 
3.201823  44.782018 3.714187  2 
42.598464  1.050194 0.945359  1 
41.201998  1.585038 0.938317  1 
40.175311  0.692643 0.937638  3 
38.899785  1.137101 0.931459  1 
38.527421  2.471030 0.925450  1 
39.566877  3.411584 0.926125  1 
39.615199  4.842602 0.921154  1 
38.636721  5.858298 0.914078  1 
39.036832  7.199767 0.911032  1 
40.388079  7.537515 0.914976  1 
41.377106  6.549946 0.922417  1 
40.958451  5.214192 0.925054  1 
41.696619  4.055145 0.931731  3 
42.705300  4.023286 0.935671  2 
40.880964  2.946994 0.932538  1 
42.599500  -0.044138 0.949004  2 
43.129658  1.397773 1.836704  2 
43.136329  1.391828 0.055696  2 
38.145268  0.354974 0.931491  2 
37.485454  2.764680 0.920633  2 
37.580728  5.605409 0.910977  2 
38.284064  7.984275 0.905529  2 
40.679357  8.585526 0.912514  2 
42.428716  6.817294 0.925063  2 
17.321876  30.067205 33.932332  1 
16.307388  29.027322 33.564112  1 
16.058371  27.948958 34.398465  1 
15.007335  27.077271 34.096159  1 
14.702366  26.017522 34.968096  1 
13.588492  25.193311 34.742215  1 
13.205930  24.175356 35.620384  1 
12.113648  23.391814 35.457574  3 
11.368906  23.621056 34.359437  1 
11.669480  24.583006 33.409402  1 
12.796824  25.393389 33.601462  1 
13.138269  26.419979 32.700244  1 
14.233530  27.291464 32.935869  1 
14.602455  28.381188 32.113128  1 
13.868028  28.759270 30.860215  1 
15.608924  29.238786 32.430133  3 
17.898133  29.779573 34.817177  2 
16.809186  31.009682 34.152477  2 
18.018919  30.227537 33.104956  2 
16.648597  27.814196 35.299783  2 
15.310972  25.855818 35.853474  2 
13.776320  23.965935 36.521169  2 
10.487339  22.993837 34.257625  2 
11.021767  24.709720 32.547713  2 
12.516204  26.553623 31.821347  2 
13.252845  27.956355 30.450447  2 
14.587561  29.032047 30.079956  2 
13.228138  29.625498 31.058178  2 
43.176833  1.176735 46.919642  1 
42.242363  2.330926 46.717219  1 
41.534601  2.881773 47.775726  1 
40.657207  3.971152 47.564601  1 
39.892951  4.597941 48.594355  1 
39.966785  4.162513 49.907117  4 
39.023652  5.683142 48.367076  1 
38.324099  6.238524 49.385123  3 
37.503327  7.274485 49.130025  1 
37.325697  7.816000 47.876017  1 
38.034292  7.262161 46.810185  1 
37.845609  7.848716 45.435861  1 
38.907299  6.168518 47.052561  1 
39.659905  5.553033 46.028379  1 
40.535140  4.464877 46.249300  1 
41.296318  3.841836 45.229950  1 
41.273104  4.256057 43.784436  1 
42.130908  2.797190 45.461248  3 
43.213976  0.860754 47.966548  2 
44.188310  1.460436 46.612667  2 
42.848994  0.324108 46.316869  2 
41.681199  2.447516 48.757514  2 
40.572974  3.420020 49.999950  2 
36.975643  7.668665 49.993447  2 
36.648220  8.651565 47.739441  2 
37.136305  8.682760 45.445816  2 
37.450790  7.091657 44.750373  2 
38.796698  8.232707 45.052572  2 
39.552143  5.945335 45.023296  2 
40.621043  5.099811 43.560085  2 
40.938717  3.413272 43.170456  2 
42.284410  4.535431 43.470723  2 
1.494718  10.699603 46.035068  1 
2.811773  10.469694 46.796141  1 
2.965877  11.563307 47.858104  1 
2.825480  9.060810 47.423378  1 
2.695534  7.908297 46.522853  3 
3.455537  7.399339 45.519154  1 
3.211284  6.241385 45.165589  4 
4.642980  8.177158 44.918713  1 
4.676028  8.027537 43.372608  1 
3.415864  8.637210 42.743464  1 
5.907537  8.688141 42.733885  1 
5.834981  7.600644 45.538861  3 
6.411179  7.937375 46.731267  1 
7.166721  7.126397 47.260649  4 
6.039399  9.271521 47.421430  1 
7.322214  9.938620 47.993663  1 
8.312108  10.302181 46.881695  1 
7.007686  11.201306 48.806261  1 
5.139273  8.906695 48.515235  3 
3.800767  8.711702 48.567750  1 
3.369901  8.133689 49.573385  4 
1.479494  11.692541 45.572941  2 
0.630740  10.632628 46.706438  2 
1.361787  9.962068 45.237168  2 
3.616543  10.611138 46.078325  2 
2.201837  11.475222 48.637366  2 
2.875504  12.557497 47.406765  2 
3.947969  11.513665 48.335780  2 
1.859564  9.027215 47.956539  2 
2.051348  7.197546 46.858644  2 
4.581972  9.229250 45.153816  2 
4.702989  6.962751 43.107052  2 
3.367725  9.717885 42.917104  2 
2.505741  8.186560 43.149724  2 
3.405748  8.469195 41.660908  2 
6.031137  9.724911 43.064968  2 
5.817170  8.699346 41.640468  2 
6.823638  8.139169 42.973473  2 
6.046754  6.638918 45.285918  2 
5.546140  9.962376 46.744818  2 
7.826076  9.235004 48.670610  2 
7.880883  11.034228 46.191088  2 
8.612333  9.422377 46.304926  2 
9.224138  10.735697 47.307480  2 
6.447358  11.929278 48.210731  2 
7.932348  11.684850 49.142311  2 
6.423582  10.965659 49.701502  2 
5.588733  8.443151 49.300176  2 
11.038549  31.568843 25.171281  1 
11.610992  30.464205 24.676418  1 
10.806330  29.308016 24.097837  1 
9.511547  29.440274 23.297922  1 
8.375988  29.939311 24.039285  1 
8.157242  29.106011 25.253765  1 
7.018951  29.848561 26.068477  1 
7.446851  31.590132 26.413913  1 
7.395871  32.735800 25.379288  1 
6.259789  32.958131 24.332286  1 
5.744964  31.847511 23.363755  1 
4.745920  30.736743 23.821735  1 
5.181643  29.776483 24.870420  1 
5.397910  30.566437 26.620667  1 
6.606851  30.148521 28.008879  1 
7.392851  30.966242 29.093033  1 
8.404034  30.113909 29.890674  1 
12.989730  30.313508 24.909220  4 
13.781762  29.425159 24.094198  1 
14.438348  30.186597 22.894307  1 
15.598961  31.174088 23.082358  1 
14.847248  28.636645 24.907582  1 
14.437718  27.610911 25.878605  4 
13.878595  26.421331 25.471616  1 
13.334185  26.267661 24.388150  4 
13.935611  25.341686 26.585324  1 
14.658659  23.959533 26.437343  1 
14.160624  22.874067 25.451375  1 
15.008487  21.568264 25.469362  1 
14.567271  20.447221 24.490852  1 
14.591555  20.711121 22.980402  1 
13.752582  21.863957 22.345660  1 
12.262207  22.261317 22.224470  1 
11.104574  22.566626 22.875594  1 
10.451907  22.533999 24.267333  1 
9.950849  23.847860 24.990844  1 
9.164638  23.552888 26.323290  1 
8.623577  24.801364 27.045857  1 
7.944404  24.509325 28.404158  1 
7.441802  25.731393 29.195109  1 
8.544775  26.653636 29.712824  1 
9.391128  27.362327 28.671835  1 
9.981215  31.720958 25.147086  2 
11.579746  32.346090 25.693887  2 
10.614353  28.639163 24.944075  2 
11.391525  28.765273 23.376378  2 
9.187944  28.432434 23.004318  2 
9.612511  30.049147 22.402777  2 
7.528600  29.959576 23.363518  2 
8.506681  30.973057 24.290665  2 
8.975485  29.109615 25.977913  2 
7.798609  28.078719 25.063425  2 
6.946411  28.775781 26.650996  2 
6.053621  29.106679 26.260301  2 
8.385483  31.652548 26.953889  2 
6.702785  32.126592 27.171979  2 
8.332180  32.649532 24.875515  2 
7.524801  33.692928 25.950241  2 
6.701635  33.722145 23.673347  2 
5.385545  33.442096 24.788678  2 
6.605154  31.477406 22.801632  2 
5.164120  32.353134 22.580649  2 
4.515017  30.082423 22.958336  2 
3.877041  31.141452 24.290961  2 
6.056525  29.366991 24.327213  2 
4.711298  28.796528 24.982972  2 
4.459539  31.026750 27.021703  2 
5.649571  31.471867 25.884772  2 
7.740072  29.868692 27.660057  2 
6.455402  29.118820 28.364475  2 
6.592957  31.358704 29.666989  2 
8.084848  31.760855 28.769263  2 
7.866622  29.380114 30.479572  2 
9.005619  30.756185 30.536648  2 
9.157596  29.631019 29.265928  2 
13.152717  28.665835 23.649461  2 
13.653381  30.717724 22.343717  2 
14.828305  29.414352 22.219698  2 
15.417488  31.963063 23.816243  2 
15.780822  31.680296 22.120216  2 
16.536154  30.664072 23.332592  2 
15.451635  29.349547 25.479783  2 
15.518016  28.135762 24.201499  2 
12.909116  25.185445 26.935228  2 
14.453927  25.827070 27.426377  2 
14.600220  23.495681 27.433067  2 
15.722006  24.135772 26.244429  2 
14.200878  23.304371 24.459598  2 
13.124716  22.601619 25.670686  2 
14.967747  21.133763 26.481670  2 
16.070016  21.796797 25.302424  2 
13.577532  20.073882 24.760953  2 
15.255839  19.598018 24.668684  2 
14.409276  19.761095 22.449692  2 
15.648693  20.921335 22.722236  2 
14.053995  21.765520 21.281636  2 
14.263212  22.787181 22.615676  2 
12.130106  22.491758 21.151821  2 
10.335415  22.916300 22.170025  2 
11.062478  21.950564 24.954504  2 
9.527474  21.955547 24.108856  2 
9.293510  24.435614 24.334579  2 
10.814267  24.483067 25.223404  2 
9.845166  23.039935 27.014653  2 
8.313385  22.895021 26.135521  2 
7.934042  25.377799 26.419941  2 
9.506517  25.398506 27.178037  2 
8.617364  23.938792 29.056114  2 
7.073813  23.871675 28.211755  2 
6.891762  25.368335 30.081747  2 
6.700554  26.294190 28.614577  2 
9.205683  26.101129 30.385302  2 
8.062111  27.410481 30.337077  2 
10.032532  26.740713 28.070945  2 
10.138770  27.980644 29.169806  2 
8.772802  27.952023 27.992210  2 
16.565836  42.120167 20.054671  1 
17.039790  41.671405 20.812292  1 
17.996621  41.398585 20.712077  1 
18.479499  41.574527 19.854242  1 
19.436330  41.301707 19.754027  1 
19.919208  41.477645 18.896201  1 
20.876039  41.204825 18.795986  1 
21.358917  41.380766 17.938151  1 
22.315748  41.107946 17.837936  1 
22.798626  41.283884 16.980110  1 
23.755457  41.011064 16.879895  1 
24.238335  41.187006 16.022059  1 
25.195166  40.914186 15.921844  1 
25.678044  41.090128 15.064009  1 
26.634875  40.817308 14.963794  1 
27.117753  40.993246 14.105968  1 
28.074584  40.720426 14.005753  1 
28.557462  40.896367 13.147918  1 
29.514294  40.623547 13.047703  1 
29.997171  40.799485 12.189877  1 
30.954003  40.526665 12.089662  1 
31.436880  40.702607 11.231827  1 
32.393712  40.429787 11.131612  1 
32.876589  40.605725 10.273786  1 
33.833421  40.332905 10.173571  1 
34.316298  40.508846 9.315736  1 
35.273130  40.236026 9.215521  1 
35.756008  40.411964 8.357695  1 
36.712839  40.139144 8.257480  1 
37.195717  40.315086 7.399645  1 
38.152548  40.042266 7.299430  1 
38.635426  40.218204 6.441604  4 
30.962927  41.151365 10.474216  4 
31.445805  41.327307 9.616380  1 
32.402636  41.054487 9.516165  1 
32.885514  41.230425 8.658339  1 
33.842345  40.957605 8.558125  1 
34.325223  41.133547 7.700289  1 
35.282054  40.860726 7.600074  1 
35.764932  41.036665 6.742248  1 
36.721763  40.763844 6.642033  1 
37.204641  40.939786 5.784198  1 
38.161472  40.666966 5.683983  1 
38.644350  40.842904 4.826157  1 
39.601181  40.570084 4.725942  1 
40.084059  40.746026 3.868107  1 
41.040890  40.473206 3.767892  1 
41.523768  40.649147 2.910057  1 
42.480599  40.376327 2.809842  1 
42.963477  40.552265 1.952016  1 
43.920308  40.279445 1.851801  1 
44.403186  40.455387 0.993966  1 
45.360018  40.182567 0.893751  1 
45.842895  40.358505 0.035925  1 
30.971851  41.776065 8.858769  1 
31.454729  41.952007 8.000934  4 
30.015020  42.048885 8.958984  1 
29.541066  42.497647 8.201364  1 
30.023944  42.673586 7.343538  1 
30.980775  42.400765 7.243323  1 
31.463653  42.576707 6.385487  1 
32.420484  42.303887 6.285272  1 
32.903362  42.479825 5.427446  1 
33.860193  42.207005 5.327232  1 
34.343071  42.382947 4.469396  1 
35.299902  42.110127 4.369181  4 
21.715836  19.386832 45.663096  1 
20.786295  19.684645 45.880509  1 
20.242967  20.168533 45.194472  1 
20.629180  20.354608 44.291021  1 
20.085852  20.838496 43.604984  1 
20.472057  21.024572 42.701540  1 
19.928729  21.508460 42.015503  1 
20.314942  21.694536 41.112052  1 
19.771614  22.178424 40.426015  1 
20.157827  22.364499 39.522564  1 
19.614499  22.848387 38.836527  1 
20.000704  23.034463 37.933083  1 
19.457376  23.518351 37.247046  1 
19.843589  23.704426 36.343595  1 
19.300261  24.188315 35.657558  1 
19.686467  24.374390 34.754113  1 
19.143139  24.858279 34.068076  1 
19.529352  25.044354 33.164625  1 
18.986023  25.528242 32.478588  1 
19.372229  25.714318 31.575144  1 
18.828901  26.198206 30.889107  1 
19.215114  26.384281 29.985656  1 
18.671786  26.868169 29.299619  4 
20.144647  26.086469 29.768249  1 
20.530860  26.272544 28.864798  1 
19.987532  26.756432 28.178761  1 
20.373738  26.942508 27.275316  1 
19.830410  27.426396 26.589279  1 
20.216623  27.612472 25.685828  1 
19.673294  28.096360 24.999791  1 
20.059500  28.282436 24.096347  1 
19.516172  28.766324 23.410310  1 
19.902385  28.952399 22.506859  4 
42.707361  33.652573 14.829466  1 
42.593966  32.418268 15.707640  1 
42.063596  32.693351 17.130124  1 
41.929865  31.462545 18.029238  1 
42.283386  30.193128 17.524909  1 
42.238269  29.083485 18.369983  1 
42.596419  27.778112 18.107309  3 
42.966396  27.459671 17.229398  2 
42.482229  27.039326 19.252470  1 
42.896401  25.665395 19.472034  1 
43.089224  24.749300 18.464339  1 
43.470600  23.474903 18.675773  3 
43.726907  23.066316 19.937882  1 
44.128370  21.737254 20.157824  1 
44.091495  20.728335 19.007316  1 
45.475718  20.116255 18.748115  1 
43.004293  19.640967 19.213301  1 
41.555451  20.160660 19.298979  1 
41.057723  20.861819 18.041658  1 
44.513100  21.322950 21.449115  1 
44.440071  22.193641 22.527818  1 
43.971232  23.489249 22.328484  1 
43.600524  23.942403 21.041214  1 
43.108139  25.251443 20.805472  1 
42.872895  26.260926 21.932901  1 
41.808839  27.342188 21.622250  1 
41.998121  27.864487 20.243382  1 
41.827467  29.158179 19.692422  1 
41.406420  30.400465 20.187069  1 
41.474120  31.553044 19.366220  1 
41.067159  32.855879 20.016998  1 
42.245237  33.553292 20.714899  1 
41.875615  34.902298 21.374248  1 
41.363035  35.889423 20.322555  1 
40.884621  34.697994 22.537519  1 
40.487708  35.977508 23.258492  1 
43.207828  33.386406 13.890627  2 
43.295292  34.437112 15.312888  2 
41.720354  34.050857 14.577214  2 
43.589891  31.962264 15.772575  2 
41.938012  31.703556 15.195108  2 
41.083536  33.177865 17.050188  2 
42.750121  33.398193 17.615973  2 
42.620174  30.057269 16.506399  2 
42.928645  24.998563 17.419530  2 
43.847216  21.242126 18.071570  2 
45.831976  19.497505 19.577597  2 
46.217565  20.905587 18.576783  2 
45.453672  19.489459 17.849423  2 
43.212283  19.073387 20.129957  2 
43.060074  18.918602 18.388946  2 
41.445169  20.834894 20.155376  2 
40.890994  19.309134 19.495892  2 
41.705249  21.689086 17.747505  2 
40.058955  21.278456 18.212574  2 
40.990075  20.165499 17.200110  2 
44.864507  20.307315 21.621032  2 
44.731248  21.869576 23.518859  2 
43.921537  24.141971 23.192295  2 
43.834363  26.746605 22.145701  2 
42.543327  25.751467 22.844883  2 
41.864801  28.141605 22.367586  2 
40.808330  26.895178 21.691207  2 
41.058152  30.474162 21.214291  2 
40.277667  32.641171 20.748267  2 
40.596494  33.499300 19.270337  2 
43.051594  33.724031 19.990296  2 
42.669619  32.887652 21.479298  2 
42.800481  35.321586 21.795097  2 
40.426871  35.548557 19.871300  2 
42.101392  36.013610 19.522808  2 
41.177560  36.877581 20.751020  2 
41.335255  34.015991 23.269898  2 
39.967384  34.218806 22.181693  2 
41.366346  36.527997 23.606489  2 
39.868733  35.734833 24.128556  2 
39.894883  36.631606 22.612148  2 
3.186816  1.288836 40.649489  1 
4.610605  1.743997 40.345848  1 
4.722652  3.273962 40.227932  1 
6.113979  3.847847 39.926492  1 
6.302217  4.593852 38.746231  1 
5.248713  4.683959 37.868834  4 
7.522836  5.251220 38.444276  1 
7.716206  6.022443 37.276437  1 
8.946544  6.628109 37.023105  1 
9.978573  6.495572 37.947561  1 
9.828782  5.776332 39.122684  1 
10.854324  5.701739 39.976025  3 
10.729201  4.975905 41.118076  1 
11.970519  4.938538 41.988180  1 
12.113598  6.085572 43.018566  1 
10.973482  6.137637 44.038103  1 
13.445805  5.950002 43.769133  1 
9.536671  4.285322 41.458540  1 
9.375332  3.523518 42.640894  1 
8.151597  2.942549 42.986309  1 
7.955209  2.210110 44.301279  1 
6.760566  2.737795 45.141025  1 
6.572449  2.024416 46.504812  1 
5.408417  2.608978 47.323254  1 
6.308736  0.529827 46.321848  1 
7.116112  3.032108 42.060181  1 
7.202639  3.738104 40.844246  1 
8.447201  4.385002 40.557790  1 
8.584952  5.135341 39.366725  1 
3.193437  0.239781 40.966335  2 
2.550268  1.368137 39.763784  2 
2.735538  1.874516 41.457814  2 
4.964234  1.260083 39.429721  2 
5.234792  1.350384 41.147566  2 
4.366132  3.754211 41.148450  2 
4.005860  3.588321 39.459718  2 
5.599882  4.512069 36.978882  2 
6.918275  6.170013 36.557882  2 
9.096091  7.203589 36.112011  2 
10.937931  6.972598 37.743824  2 
12.835950  4.993766 41.306836  2 
12.075529  3.967535 42.475151  2 
12.131617  7.044134 42.484433  2 
10.732845  5.146100 44.427795  2 
10.071905  6.566539 43.589673  2 
11.236801  6.754747 44.903776  2 
13.454726  5.061804 44.410980  2 
13.618519  6.824182 44.407458  2 
14.288846  5.877630 43.074581  2 
10.201204  3.393406 43.327992  2 
8.870040  2.277392 44.902302  2 
7.813159  1.149489 44.062662  2 
5.834296  2.626672 44.563723  2 
6.890315  3.815217 45.307527  2 
7.487496  2.147731 47.097499  2 
4.503849  2.728404 46.717541  2 
5.667024  3.580615 47.755482  2 
5.151980  1.946834 48.161185  2 
5.423413  0.366482 45.697951  2 
6.133134  0.044897 47.288407  2 
7.160886  0.026492 45.860084  2 
6.192173  2.530492 42.334554  2 
26.226079  29.022541 7.726192  1 
25.949543  27.838079 6.814703  1 
26.866367  26.657549 7.136605  1 
26.635169  25.445857 6.229340  1 
25.296085  24.755532 6.391473  1 
24.273479  25.159552 5.514430  1 
22.948928  24.683698 5.542623  1 
22.623134  23.700858 6.504758  1 
23.662635  23.280061 7.384560  1 
24.989002  23.783355 7.349506  1 
25.978036  23.292676 8.386940  1 
27.160587  22.482998 7.864263  1 
21.313758  23.183116 6.562073  1 
21.000802  22.238920 7.472118  3 
19.739073  21.762338 7.474363  1 
19.168280  20.774690 8.312237  1 
17.852234  20.619907 7.934332  1 
17.611712  21.484325 6.896665  3 
16.727343  21.583333 6.417419  2 
18.750957  22.194881 6.599757  1 
19.037010  23.185383 5.645983  1 
18.068662  23.662269 4.742980  1 
18.416841  24.647206 3.819497  1 
19.718990  25.160419 3.787030  1 
20.077877  26.157711 2.872443  1 
21.369929  26.652079 2.901534  1 
21.817772  27.727016 1.928507  1 
22.909421  28.704597 2.437839  1 
24.249783  28.033357 2.735047  1 
23.172060  29.804303 1.405811  1 
22.291929  26.145094 3.745532  3 
21.983387  25.180306 4.644999  1 
20.691058  24.671599 4.695638  1 
20.357905  23.674955 5.644253  1 
25.647727  29.892083 7.398999  2 
27.286242  29.294024 7.717221  2 
25.937898  28.792009 8.756883  2 
26.095539  28.142772 5.771759  2 
24.899097  27.552523 6.929066  2 
26.762442  26.374894 8.189760  2 
27.907154  26.981363 6.999577  2 
27.450786  24.743810 6.383445  2 
26.759186  25.752569 5.181288  2 
24.534868  25.903554 4.770183  2 
23.411662  22.532260 8.140940  2 
25.453686  22.655149 9.110815  2 
26.335512  24.152033 8.965149  2 
26.829386  21.559118 7.382212  2 
27.822248  22.220507 8.696804  2 
27.777118  23.016234 7.141906  2 
19.674198  20.238594 9.102361  2 
17.071142  19.973160 8.310757  2 
17.051403  23.283926 4.749042  2 
17.659486  25.012815 3.129229  2 
19.357950  26.544129 2.158142  2 
20.936581  28.327889 1.662481  2 
22.152277  27.235170 1.006711  2 
22.551295  29.179846 3.360498  2 
24.583926  27.404348 1.904423  2 
24.181071  27.424870 3.626411  2 
25.029599  28.766943 2.960052  2 
23.495200  29.377437 0.449953  2 
23.965664  30.475911 1.754606  2 
22.277876  30.408717 1.232553  2 
40.705203  11.056526 5.130531  1 
40.533224  11.908612 3.890766  1 
41.372886  13.196440 4.024263  1 
42.840257  12.665286 4.061390  1 
43.116497  11.946476 5.402457  1 
41.922841  11.139727 5.921277  1 
41.999819  10.629822 7.251271  1 
40.823716  10.098913 7.774775  1 
39.732073  9.963587 6.878679  1 
39.582326  10.344087 5.561564  1 
38.655837  9.335858 7.454964  1 
37.532030  8.960717 6.785531  1 
37.325350  9.401084 5.468428  1 
38.397800  10.096247 4.898525  3 
40.767326  9.656454 9.185653  1 
39.577087  9.025098 9.702332  1 
38.605227  8.911178 8.780979  1 
43.083978  10.677787 8.041828  3 
43.011623  10.190925 9.333266  1 
41.872510  9.647851 9.998918  1 
41.786939  8.963936 11.334601  1 
40.635924  8.136417 11.630039  1 
39.516921  8.173592 10.822534  1 
38.490973  7.162100 10.803827  1 
37.365226  7.201180 9.969971  1 
37.526850  8.060983 8.902354  1 
42.766918  8.921488 12.333038  1 
42.742749  8.090612 13.424641  3 
41.722554  7.202384 13.541112  1 
40.678003  7.154158 12.639875  1 
39.627613  6.057867 12.706014  1 
38.900792  5.814143 11.382437  1 
40.906396  14.063196 5.248387  1 
39.431022  14.520192 5.174126  1 
38.943595  15.297910 6.406696  1 
39.024744  14.489505 7.694826  1 
43.947495  13.666997 3.684614  1 
43.825236  14.202012 2.257545  1 
36.106638  9.169149 4.597137  1 
34.711112  9.217905 5.276695  1 
33.577015  9.027126 4.287343  1 
34.475287  8.170463 6.343221  1 
39.690032  4.914880 10.342080  1 
41.098664  5.299822 9.829838  1 
41.167122  6.482410 8.903340  1 
41.748731  6.348466 14.785760  1 
42.500080  5.019870 14.611771  1 
42.503236  4.159542 15.898476  1 
41.078035  3.786943 16.321050  1 
43.374294  2.882700 15.777136  1 
42.871738  1.856903 14.754354  1 
43.741526  0.609519 14.694207  1 
36.904666  8.132056 7.694285  3 
43.934920  9.866664 12.356948  1 
39.483745  12.180141 3.744657  2 
40.825309  11.332235 3.005462  2 
41.215421  13.792892 3.120652  2 
42.916695  11.886030 3.286644  2 
43.385739  12.694767 6.159128  2 
43.975724  11.274217 5.283731  2 
43.985177  10.205735 9.805365  2 
36.593559  6.440314 9.970545  2 
40.067045  5.103259 13.013806  2 
38.892168  6.342044 13.469633  2 
37.984240  5.243299 11.615482  2 
41.550022  14.942470 5.357204  2 
41.023460  13.498730 6.176335  2 
38.763822  13.658983 5.059446  2 
39.294154  15.148432 4.286886  2 
37.895659  15.587024 6.247881  2 
39.511704  16.227716 6.517004  2 
38.485524  13.541449 7.597512  2 
38.585638  15.046774 8.528453  2 
40.062579  14.271761 7.960610  2 
44.917080  13.152630 3.748174  2 
43.984032  14.500280 4.391884  2 
43.932238  13.395265 1.522985  2 
44.614715  14.934283 2.057716  2 
42.868065  14.698233 2.081231  2 
36.247386  8.228212 4.052340  2 
36.111888  9.963192 3.833665  2 
34.607176  10.198255 5.757769  2 
33.673982  8.066780 3.770022  2 
33.548388  9.838391 3.561413  2 
32.621680  9.017307 4.827954  2 
34.948419  7.213875 6.076474  2 
33.439482  7.964566 6.615806  2 
34.831246  8.630086 7.259382  2 
39.052018  4.743940 9.463434  2 
39.817400  3.928252 10.808790  2 
41.522574  4.472860 9.257374  2 
41.760259  5.474364 10.685153  2 
40.344372  6.576872 8.191706  2 
42.135512  6.689550 8.445844  2 
41.123788  7.296386 9.565384  2 
40.716137  6.181701 15.114372  2 
42.214802  6.943101 15.578141  2 
43.532288  5.231889 14.306829  2 
42.050945  4.447891 13.792394  2 
42.943134  4.764775 16.703487  2 
40.509273  3.386526 15.475087  2 
40.538658  4.656908 16.706339  2 
41.085876  3.034031 17.115729  2 
43.407811  2.398329 16.763319  2 
44.407860  3.166680 15.544030  2 
42.827141  2.306002 13.757537  2 
41.858879  1.533935 15.016161  2 
44.763116  0.841628 14.378246  2 
43.317088  -0.099625 13.975057  2 
43.781307  0.112634 15.668623  2 
36.156717  7.489845 7.524198  2 
44.309934  9.974521 13.374993  2 
43.625682  10.864463 12.026905  2 
44.746676  9.489214 11.729290  2 
28.936254  22.953517 32.370426  1 
27.573122  23.319242 32.535635  1 
27.239129  24.804605 32.439655  1 
28.359286  25.776827 31.946603  1 
29.765669  25.268549 32.244925  1 
29.985400  23.899636 32.300013  1 
29.251712  21.585109 32.276288  1 
28.272524  20.601939 32.432616  1 
26.969911  20.933882 32.870689  1 
26.586996  22.313505 32.847005  1 
28.593771  19.244408 32.148631  1 
27.664809  18.232698 32.392069  1 
26.544826  18.619297 33.167496  1 
26.181561  19.929632 33.311050  3 
29.879535  18.907249 31.660427  1 
30.163501  17.626770 31.129404  1 
29.094469  16.695680 31.026663  1 
27.933414  16.952017 31.783160  1 
30.597159  21.187390 32.053952  1 
30.898103  19.846584 31.726580  1 
31.341457  23.483617 32.272047  1 
31.626424  22.109195 32.158434  1 
30.778855  26.182957 32.196999  3 
32.080744  25.789156 32.213809  1 
32.385497  24.436215 32.261484  1 
28.830943  15.507548 30.239792  1 
27.664089  14.956187 30.731548  1 
27.206052  15.785903 31.723955  3 
29.413639  14.890052 29.100918  1 
28.818779  13.752378 28.473651  1 
27.653390  13.193713 29.055890  1 
27.098759  13.788763 30.215148  1 
32.238030  19.453227 31.469869  1 
32.511064  18.171096 30.966712  1 
31.470163  17.285054 30.744591  1 
32.960136  21.637469 32.132704  1 
33.262907  20.331614 31.747972  1 
33.807179  23.942974 32.174295  1 
34.037419  22.527547 32.635239  1 
25.113035  22.740319 33.134375  1 
24.033152  21.732895 32.695408  1 
24.896664  23.200570 34.603407  1 
23.465230  23.631785 34.993069  1 
22.902259  24.793038 34.183290  1 
25.738737  17.617697 33.973106  1 
25.698776  17.933824 35.483453  1 
24.876743  16.919920 36.315762  1 
25.428300  15.493599 36.202411  1 