NumberOfAtoms 181
SpinPolarized yes
#FixSpin .true.
#TotalSpin 
NumberOfSpecies 4

 
MD.TypeOfRun  nose
MD.FinalTimeStep 10
MD.LengthTimeStep 1.0  fs
MD.InitialTemperature 300 K 
MD.TargetTemperature  300  K


%block ChemicalSpeciesLabel
1  6  C
2  7  N
3  1  H
4  8  O
%endblock ChemicalSpeciesLabel

PAO.BasisSize szp 
 PAO.EnergyShift 0.02 Ry 
 
MeshCutoff          100 Ry
MaxSCFIterations    100  
DM.NumberPulay       3  
DM.Tolerance         1e-3
WriteDenchar	.true.

%block ProjectedDensityOfStates
-10.0 10.0 0.200 500 eV
%endblock ProjectedDensityOfStates
NetCharge 0.00

%block BandLines
1  1.000  1.000 1.000  L
20 0.00   0.00   0.00  \Gamma
25 2.00   0.000  0.00  X
30 2.00   2.00   2.00  \Gamma
%endblock BandLines


LongOutput .true.
WriteCoorXmol .true.
LatticeConstant 1 Ang
%block LatticeVectors
  37.558519 0.0 0.0
  0.0 37.186526 0.0
  0.0 0.0 36.512816
%endblock LatticeVectors


 

#UseSaveData .true.  
%block kgrid_Monkhorst_Pack
1 0 0 0.0 
 0 1 0 0.0 
 0 0 1 0.0 

%endblock kgrid_Monkhorst_Pack
WriteMDXmol .true.
AtomicCoordinatesFormat Ang
%block AtomicCoordinatesAndAtomicSpecies
18.401728  6.553524 7.405508  1 
19.630895  7.390927 7.714480  1 
20.972645  6.667655 7.475719  1 
22.225159  7.496034 7.769273  1 
22.087573  8.825190 8.222217  1 
23.227407  9.552846 8.566875  1 
23.318976  10.827453 9.084811  2 
22.527882  11.408000 9.299638  3 
24.627892  11.108455 9.364123  1 
25.162955  12.267093 10.056005  1 
24.498172  13.464921 10.179021  1 
25.002269  14.537052 10.819847  2 
26.208013  14.436444 11.421191  1 
26.732210  15.554439 12.092951  1 
26.031182  16.910487 11.980542  1 
25.619434  17.449493 13.358162  1 
26.869562  17.941335 11.179743  1 
27.172129  17.556621 9.717890  1 
25.940857  17.405433 8.833964  1 
27.931217  15.437174 12.824886  1 
28.642440  14.245139 12.840664  1 
28.166199  13.156702 12.114961  1 
26.954303  13.235217 11.390406  1 
26.447146  12.149589 10.631587  1 
27.201293  10.825515 10.478030  1 
26.856698  10.029086 9.195532  1 
25.386640  10.026926 8.974568  1 
24.511568  9.041135 8.456124  1 
24.667675  7.746651 7.941175  1 
23.529563  6.968379 7.615893  1 
23.803301  5.559927 7.138569  1 
23.885540  4.555569 8.298664  1 
24.141755  3.097858 7.850766  1 
23.007074  2.608180 6.947479  1 
25.531310  2.954139 7.198471  1 
25.873451  1.541018 6.750668  1 
17.502835  7.096051 7.722343  3 
18.422297  5.598339 7.936600  3 
18.312319  6.362855 6.332150  3 
19.567257  7.702190 8.764760  3 
19.579696  8.297896 7.099202  3 
21.009060  6.333963 6.432175  3 
20.994593  5.776796 8.116074  3 
21.118599  9.290172 8.341078  3 
23.515054  13.626191 9.746571  3 
25.083060  16.794235 11.444983  3 
26.475200  17.691681 13.995988  3 
25.004029  16.713288 13.889211  3 
25.017253  18.358470 13.247961  3 
27.827894  18.117631 11.685889  3 
26.344678  18.905171 11.177855  3 
27.756603  16.630680 9.683356  3 
27.809922  18.334408 9.277844  3 
25.227627  16.686868 9.240354  3 
26.231549  17.045552 7.840827  3 
25.425549  18.362276 8.705316  3 
28.323107  16.286167 13.381834  3 
29.565764  14.161160 13.399578  3 
28.747899  12.242664 12.143981  3 
26.972892  10.212496 11.359863  3 
28.282943  10.997263 10.457735  3 
27.254420  9.012452 9.272983  3 
27.338043  10.507665 8.332478  3 
25.667989  7.337214 7.824394  3 
24.750432  5.564411 6.584426  3 
23.045597  5.275008 6.405272  3 
22.954221  4.587974 8.878326  3 
24.679178  4.858789 8.995571  3 
24.133294  2.474358 8.756012  3 
22.965459  3.170924 6.010563  3 
22.041525  2.717024 7.453499  3 
23.122180  1.552569 6.688878  3 
26.294169  3.281808 7.916284  3 
25.616115  3.608999 6.325818  3 
25.768767  0.826256 7.571826  3 
26.908827  1.506068 6.395974  3 
25.236330  1.220705 5.920895  3 
9.455861  25.487537 28.140802  1 
9.074767  26.896086 27.777375  1 
10.031004  27.908031 27.895293  1 
9.676244  29.197366 27.550316  1 
8.455924  29.545846 27.096981  2 
7.529879  28.580087 26.973903  1 
6.277793  28.930201 26.485963  1 
5.261030  27.988065 26.315808  1 
5.489763  26.662663 26.654703  1 
6.736446  26.284752 27.151956  1 
7.778943  27.228854 27.308867  1 
10.508842  25.418537 28.434633  3 
9.314295  24.821985 27.283128  3 
8.853346  25.134863 28.983982  3 
11.037205  27.701605 28.244216  3 
10.389852  30.012782 27.626397  3 
6.091439  29.968812 26.222859  3 
4.297304  28.295901 25.919021  3 
4.704441  25.921877 26.529417  3 
6.889376  25.240596 27.411594  3 
25.850239  19.814665 3.471303  1 
26.646421  21.028366 3.111791  1 
27.160665  21.106749 1.854863  2 
27.885374  22.187484 1.492432  1 
28.163539  23.265363 2.316361  1 
27.644851  23.209521 3.617497  1 
27.697600  24.085167 4.749148  1 
28.290838  25.341416 4.992077  1 
28.145258  25.940060 6.249085  1 
27.422062  25.307197 7.257267  1 
26.824234  24.062336 7.041756  1 
26.980578  23.478786 5.779005  1 
26.511338  22.282364 5.292470  2 
25.955777  21.630153 5.825799  3 
26.897843  22.091885 3.985709  1 
25.789296  19.121100 2.627011  3 
24.833114  20.102524 3.754268  3 
26.318507  19.293295 4.311786  3 
28.256233  22.165165 0.471166  3 
28.751717  24.104247 1.966696  3 
28.856606  25.843006 4.212721  3 
28.601863  26.908470 6.438391  3 
27.320028  25.788233 8.227509  3 
26.261996  23.572472 7.829975  3 
19.015413  4.052034 3.954269  1 
17.755632  4.508390 3.282836  1 
16.768522  3.601719 2.929868  1 
15.547957  4.074931 2.437734  1 
14.514789  3.170122 2.137350  1 
13.246874  3.625829 1.742658  1 
12.170627  2.766258 1.504754  1 
10.924008  3.172894 1.166954  2 
10.738161  4.501015 1.045895  1 
11.738583  5.440856 1.230591  1 
13.019529  5.002024 1.592696  1 
14.073168  5.902864 1.839673  1 
15.347737  5.463073 2.283136  1 
16.434845  6.306538 2.610658  1 
16.376549  7.803744 2.526428  1 
17.607950  5.838111 3.113993  2 
19.092658  2.960601 3.977987  3 
19.026073  4.415830 4.987282  3 
19.889953  4.447532 3.429974  3 
16.931571  2.538636 3.078767  3 
14.683191  2.102760 2.250600  3 
12.279158  1.689395 1.600684  3 
9.726613  4.806609 0.792295  3 
11.513901  6.496395 1.114620  3 
13.877580  6.962442 1.711904  3 
15.574557  8.178528 1.888164  3 
17.314550  8.185589 2.107755  3 
16.250663  8.222293 3.530405  3 
1.082026  26.391363 11.449556  1 
1.846277  26.419149 10.160558  1 
2.719300  25.397417 9.816041  1 
3.431752  25.441614 8.594731  1 
4.346817  24.435262 8.162001  1 
4.601087  23.316679 8.938218  4 
5.048212  24.494325 6.941528  1 
5.903974  23.507703 6.583072  2 
6.556335  23.598169 5.409106  1 
6.406713  24.650061 4.532485  1 
5.531528  25.679382 4.878015  1 
5.362325  26.833096 3.924743  1 
4.830575  25.607924 6.111101  1 
3.927083  26.607926 6.532862  1 
3.218777  26.554583 7.755312  1 
2.308666  27.550656 8.186803  1 
1.977852  28.790538 7.402658  1 
1.638394  27.482475 9.364687  2 
1.303237  25.494252 12.035640  3 
0.007245  26.408148 11.243717  3 
1.341480  27.266501 12.053379  3 
2.830012  24.575466 10.513262  3 
4.096325  23.332941 9.758176  3 
7.224970  22.771561 5.187809  3 
6.963124  24.661008 3.601849  3 
5.982003  26.712936 3.030092  3 
5.660462  27.770479 4.405723  3 
4.320822  26.903516 3.594227  3 
3.777121  27.456720 5.875012  3 
2.489568  28.876716 6.444452  3 
2.240358  29.674544 7.993164  3 
0.902128  28.814938 7.199118  3 
 %endblock AtomicCoordinatesAndAtomicSpecies

