NumberOfAtoms 5183
SpinPolarized yes
#FixSpin .true.
#TotalSpin
NumberOfSpecies 4


MD.TypeOfRun  nose
MD.FinalTimeStep 100
MD.LengthTimeStep 1.0  fs
MD.InitialTemperature 300 K
MD.TargetTemperature  300  K


%block ChemicalSpeciesLabel
1 6 C
2 8 O
3 7 N
4 1 H
%endblock ChemicalSpeciesLabel
PAO.BasisSize dzp 
 PAO.EnergyShift 0.02 Ry 
MeshCutoff          100 Ry
MaxSCFIterations    100
DM.NumberPulay       3
DM.Tolerance         1e-3
WriteDenchar	.true.
%block ProjectedDensityOfStates
-10.0 10.0 0.200 500 eV
%endblock ProjectedDensityOfStates
NetCharge 0.00

%block BandLines
1  1.000  1.000 1.000  L
20 0.00   0.00   0.00  \Gamma
25 2.00   0.000  0.00  X
30 2.00   2.00   2.00  \Gamma
%endblock BandLines


LongOutput .true.
WriteCoorXmol .true.
LatticeConstant 1 Ang
%block LatticeVectors
  50 0.0 0.0
  0.0 50 0.0
0.0 0.0 50
%endblock LatticeVectors




#UseSaveData .true.
%block kgrid_Monkhorst_Pack
1 0 0 0.0 
 0 1 0 0.0 
 0 0 1 0.0

%endblock kgrid_Monkhorst_Pack
WriteMDXmol .true.
AtomicCoordinatesFormat Ang
%block AtomicCoordinatesAndAtomicSpecies
13.961459  23.797944 39.382019  1
14.298006  24.816667 38.350064  1
14.190196  24.684737 37.017822  1
13.730423  23.417601 36.329765  1
14.578524  25.794363 36.083402  1
14.064823  27.212674 36.371968  1
14.346458  28.210385 35.231207  1
13.514192  28.075563 33.921040  1
14.020930  29.108848 32.910586  1
13.505731  26.664935 33.301821  1
12.832392  26.519767 31.923786  1
12.933512  25.051426 31.484618  1
12.273950  24.716613 30.133056  1
12.949737  25.461431 28.977956  1
12.170137  23.191975 29.843608  1
13.475448  22.379868 29.700124  1
14.281045  22.223532 30.990827  1
15.662240  21.566186 30.856117  1
16.543344  22.283618 29.829396  1
16.352673  21.602841 32.227195  1
13.524061  24.289588 40.255078  4
14.872242  23.278833 39.691992  4
13.237796  23.065787 39.024462  4
14.678550  25.761380 38.749570  4
13.930887  22.521244 36.922172  4
14.247827  23.273502 35.375575  4
12.653173  23.468982 36.126785  4
14.190210  25.467987 35.133704  4
15.666772  25.806721 35.945393  4
14.574504  27.590493 37.269095  4
12.993329  27.210155 36.601903  4
15.420079  28.201361 35.006187  4
14.142155  29.215154 35.633802  4
12.477278  28.335390 34.169798  4
15.021882  28.855309 32.551989  4
14.059851  30.110065 33.358224  4
13.351160  29.171462 32.047945  4
12.893287  26.028657 33.949127  4
14.522793  26.278857 33.240358  4
13.355191  27.146313 31.191671  4
11.786877  26.841142 31.971523  4
12.536738  24.397905 32.264320  4
14.007694  24.898623 31.396095  4
11.234841  25.076443 30.193989  4
13.256137  24.791899 28.168976  4
13.840174  26.009802 29.298803  4
12.252818  26.188491 28.546590  4
11.623105  23.083886 28.896337  4
11.532423  22.719087 30.601417  4
14.084271  22.817725 28.904749  4
13.204377  21.372800 29.354167  4
13.674427  21.697621 31.736217  4
14.500026  23.189168 31.421469  4
15.537139  20.518675 30.557253  4
16.343908  21.908914 28.820219  4
17.608703  22.126136 30.034241  4
16.366656  23.365880 29.826974  4
16.589590  22.637913 32.522473  4
17.287911  21.042025 32.202257  4
15.716542  21.172408 33.004585  4
28.601833  9.018200 22.413193  1
28.506507  8.107106 21.239817  1
29.461954  7.858134 20.329305  1
30.822600  8.520772 20.331114  1
29.228275  6.920031 19.180146  1
28.603556  5.546648 19.467044  1
28.618588  4.600328 18.250353  1
29.985150  3.991159 17.815839  1
29.769450  3.159236 16.548221  1
31.115141  5.017757 17.609458  1
32.436229  4.482353 17.025072  1
33.421350  5.653585 16.895182  1
34.817860  5.288793 16.356174  1
34.744600  4.749359 14.924622  1
35.859845  6.436959 16.478906  1
35.613386  7.741437 15.690528  1
34.427686  8.574565 16.179765  1
34.050013  9.790957 15.322032  1
33.791913  9.407754 13.861981  1
32.780355  10.423615 15.909913  1
28.059225  8.586858 23.258642  4
28.151502  9.982442 22.163145  4
29.630872  9.177779 22.734440  4
27.540119  7.606354 21.129156  4
30.811331  9.502441 20.811516  4
31.185650  8.685421 19.311293  4
31.550282  7.885110 20.851422  4
30.213619  6.777544 18.770233  4
28.671269  7.430532 18.384774  4
27.552708  5.695988 19.751249  4
29.088806  5.057443 20.319210  4
28.135135  5.101326 17.402619  4
27.960351  3.753589 18.501630  4
30.300478  3.305804 18.612983  4
29.539677  3.796062 15.690064  4
28.943164  2.449150 16.679979  4
30.660689  2.570553 16.311983  4
31.407964  5.383318 18.599187  4
30.762159  5.840666 16.988593  4
32.253292  4.060042 16.030055  4
32.848370  3.695638 17.665292  4
33.515465  6.173118 17.851049  4
32.928929  6.305472 16.175728  4
35.197865  4.476385 16.995336  4
35.417786  5.276653 14.242431  4
33.737548  4.818752 14.503242  4
35.035526  3.693164 14.910375  4
36.821514  6.033099 16.132006  4
36.013162  6.679136 17.538350  4
35.518595  7.505138 14.627428  4
36.515560  8.361769 15.783387  4
34.598418  8.873748 17.219724  4
33.525436  7.981543 16.191097  4
34.859106  10.529712 15.365164  4
34.729098  9.387706 13.296384  4
33.125874  10.125969 13.369732  4
33.326961  8.418252 13.777005  4
31.914702  9.751122 15.795502  4
32.544588  11.358528 15.399857  4
32.898303  10.635784 16.975438  4
5.050898  30.026863 38.386060  1
4.360905  30.355977 37.108724  1
4.889539  30.331908 35.874275  1
6.335136  29.992557 35.581804  1
4.080119  30.701384 34.664508  1
2.684011  30.083702 34.496832  1
2.050493  30.365555 33.120135  1
2.631184  29.618568 31.882318  1
1.907840  30.115133 30.627060  1
4.158197  29.734096 31.714215  1
4.756595  29.149941 30.420337  1
6.276756  29.368163 30.445013  1
7.046787  28.808221 29.233667  1
6.627884  29.499592 27.932812  1
8.591979  28.817369 29.410806  1
9.306984  30.177368 29.562834  1
9.011293  30.917266 30.868384  1
9.570520  32.342609 30.985064  1
9.123824  33.233061 29.821979  1
9.076168  32.951042 32.305413  1
4.357900  29.510820 39.055922  4
5.383033  30.949709 38.868891  4
5.909621  29.372171 38.239229  4
3.313851  30.652996 37.219902  4
6.997476  30.215552 36.422142  4
6.715148  30.570939 34.733267  4
6.429402  28.927355 35.335292  4
4.702141  30.388556 33.843252  4
4.025359  31.792721 34.567200  4
2.019237  30.517174 35.256790  4
2.700878  29.003261 34.679424  4
2.042995  31.448567 32.945762  4
0.990434  30.075857 33.195859  4
2.390059  28.554955 32.005474  4
2.178295  31.148700 30.396042  4
0.819068  30.065474 30.755280  4
2.155452  29.492388 29.762457  4
4.619343  29.127581 32.500617  4
4.465548  30.775355 31.806762  4
4.336752  29.672523 29.552863  4
4.517100  28.085190 30.333092  4
6.698465  28.970178 31.370337  4
6.365648  30.453127 30.443872  4
6.766280  27.746682 29.147709  4
7.481340  29.892733 27.372763  4
5.942143  30.334135 28.105518  4
6.117267  28.783546 27.279408  4
9.017711  28.332468 28.520933  4
8.866787  28.169133 30.252737  4
9.078882  30.801144 28.694572  4
10.389094  29.990353 29.525211  4
9.337861  30.304063 31.715443  4
7.947550  31.050226 30.997342  4
10.665926  32.300942 31.009551  4
9.794918  33.114834 28.965081  4
9.130929  34.293010 30.101639  4
8.107868  32.988792 29.489294  4
7.985048  33.105110 32.285136  4
9.545352  33.919748 32.482275  4
9.304636  32.300599 33.153350  4
5.395314  26.735752 15.524305  1
5.650251  27.533959 16.754696  1
6.728169  27.467426 17.553172  1
7.877242  26.505565 17.341265  1
6.853810  28.326577 18.778441  1
6.557515  29.828663 18.657142  1
6.932009  30.631024 19.918908  1
8.444084  30.859013 20.217288  1
8.573572  31.600498 21.551046  1
9.303747  29.580594 20.217616  1
10.769759  29.734410 20.665486  1
11.446322  28.357104 20.599081  1
12.938484  28.332144 20.982059  1
13.150981  28.742240 22.442320  1
13.648836  26.986537 20.659847  1
13.175257  25.711318 21.390246  1
11.776916  25.228914 21.001311  1
11.205746  24.063612 21.822158  1
11.204861  24.363555 23.323905  1
9.765133  23.803880 21.358403  1
4.888663  27.357338 14.781205  4
4.751685  25.886384 15.768024  4
6.314174  26.367665 15.068458  4
4.853046  28.236389 17.015388  4
7.575434  25.601692 16.805995  4
8.294501  26.168642 18.295900  4
8.679254  26.995976 16.775065  4
7.881649  28.195117 19.070845  4
6.275964  27.892212 19.603610  4
5.478132  29.957598 18.496938  4
7.054995  30.264465 17.783320  4
6.432908  30.183787 20.787385  4
6.478282  31.628217 19.804365  4
8.831600  31.519716 19.431232  4
8.286833  30.961073 22.389910  4
7.937046  32.494311 21.567256  4
9.601576  31.938636 21.710835  4
9.392055  29.247107 19.178418  4
8.827671  28.811573 20.825240  4
10.801808  30.096418 21.699795  4
11.291954  30.456205 20.029101  4
11.309001  27.918436 19.608542  4
10.888109  27.777552 21.332272  4
13.436105  29.086282 20.352306  4
13.742774  28.011746 23.001570  4
12.207845  28.874555 22.980390  4
13.691369  29.694329 22.485840  4
14.711171  27.119249 20.909009  4
13.625522  26.811623 19.576593  4
13.253926  25.866414 22.469487  4
13.883184  24.906718 21.147739  4
11.758493  24.992976 19.931653  4
11.051235  26.016505 21.138951  4
11.800226  23.161890 21.633108  4
12.172750  24.110934 23.768868  4
10.439098  23.781259 23.849538  4
11.007856  25.422974 23.527212  4
9.107445  24.648395 21.620954  4
9.362927  22.908840 21.834783  4
9.714431  23.666890 20.275382  4
37.928925  30.389094 33.373165  1
38.312418  29.823615 32.050607  1
37.488364  29.326415 31.113791  1
35.987613  29.222412 31.279256  1
38.011546  28.772337 29.819771  1
39.039856  29.595088 29.029565  1
39.330051  29.028156 27.625835  1
38.229464  29.182738 26.533958  1
38.702161  28.477945 25.259084  1
36.832206  28.683110 26.947983  1
35.751690  28.665847 25.849973  1
34.445555  28.136145 26.460337  1
33.239139  28.085440 25.503346  1
33.484223  27.119227 24.340564  1
31.885717  27.792001 26.211317  1
31.706668  26.432972 26.921898  1
32.564396  26.243753 28.174033  1
32.537959  24.847707 28.813021  1
32.908669  23.749558 27.812094  1
33.538772  24.828200 29.977448  1
38.578164  31.235270 33.613454  4
38.049862  29.624512 34.145093  4
36.901669  30.752522 33.389022  4
39.388203  29.819080 31.851690  4
35.684686  29.144256 32.326497  4
35.593929  28.330167 30.781399  4
35.498451  30.100224 30.838263  4
37.123863  28.654399 29.221989  4
38.379485  27.749757 29.969553  4
39.987817  29.591661 29.585188  4
38.733012  30.643835 28.946195  4
39.631427  27.977644 27.720559  4
40.222722  29.554201 27.251939  4
38.146263  30.253884 26.309672  4
38.719860  27.392776 25.388977  4
39.711023  28.806840 24.979163  4
38.045133  28.713773 24.416849  4
36.435518  29.394402 27.679861  4
36.906853  27.688076 27.385686  4
36.062266  27.996130 25.039484  4
35.609389  29.669149 25.435485  4
34.188374  28.709775 27.353232  4
34.707077  27.118881 26.746399  4
33.135480  29.095306 25.076304  4
32.680206  26.386187 24.227377  4
34.418084  26.560562 24.451584  4
33.544406  27.677774 23.399929  4
31.103440  27.853400 25.441564  4
31.660339  28.601055 26.917868  4
31.874702  25.627463 26.202227  4
30.653775  26.352586 27.225718  4
32.304429  27.010799 28.911754  4
33.608379  26.399495 27.946656  4
31.535785  24.651014 29.212029  4
32.028137  23.430271 27.245228  4
33.313050  22.864886 28.317645  4
33.664454  24.091046 27.094677  4
34.573693  24.922006 29.610256  4
33.466353  23.891415 30.531518  4
33.356453  25.651516 30.672559  4
30.151167  39.403210 4.296435  1
29.457002  38.132317 4.641337  1
28.204483  37.995192 5.106407  1
27.281992  39.158014 5.401881  1
27.627865  36.646306 5.427703  1
27.781597  35.516547 4.398734  1
26.964242  34.256462 4.745428  1
25.416387  34.321709 4.580298  1
24.816691  32.996057 5.058302  1
24.739828  35.512753 5.285322  1
23.199331  35.530193 5.286417  1
22.727048  36.785092 6.035614  1
21.200465  36.982520 6.102027  1
20.520489  35.850575 6.877933  1
20.768671  38.377941 6.636288  1
21.139660  38.757585 8.086178  1
22.634195  38.968452 8.333652  1
23.058938  39.184391 9.793417  1
22.581042  38.050853 10.705511  1
24.591580  39.262651 9.846131  1
30.784935  39.249558 3.418944  4
30.781726  39.712743 5.134091  4
29.454947  40.206988 4.058092  4
30.059421  37.230526 4.497234  4
27.825621  40.074009 5.646845  4
26.639223  38.946410 6.262707  4
26.636023  39.355383 4.536965  4
26.580249  36.850310 5.569544  4
27.978155  36.311976 6.412083  4
28.839113  35.220194 4.364196  4
27.521842  35.857145 3.390024  4
27.228366  33.927192 5.757949  4
27.320230  33.456301 4.077297  4
25.210415  34.410958 3.505964  4
24.909060  32.886681 6.141945  4
25.318493  32.143611 4.583054  4
23.757236  32.929741 4.794068  4
25.001033  36.415325 4.723112  4
25.094598  35.588056 6.312803  4
22.822299  34.642410 5.807530  4
22.814490  35.520263 4.261497  4
23.199280  37.674643 5.613537  4
23.101827  36.620275 7.044290  4
20.833450  36.937659 5.064614  4
19.872412  36.220309 7.677867  4
21.240957  35.166389 7.335476  4
19.891367  35.261997 6.201051  4
19.672443  38.420357 6.567480  4
21.131606  39.158056 5.954909  4
20.727560  38.009935 8.768964  4
20.627644  39.700088 8.324672  4
22.995088  39.787249 7.701590  4
23.196054  38.097261 8.031661  4
22.649227  40.135826 10.152802  4
21.558157  38.236456 11.048842  4
23.214668  37.956638 11.595114  4
22.592304  37.082424 10.191185  4
25.045640  38.292033 9.588409  4
24.928969  39.531858 10.847881  4
24.976301  40.006767 9.144311  4
1.692527  28.831230 24.137275  1
1.373474  29.857614 23.107357  1
2.190285  30.816042 22.640308  1
3.603220  31.035987 23.135979  1
1.734431  31.801378 21.602754  1
1.008466  31.274092 20.356275  1
0.790028  32.349315 19.273565  1
2.029656  32.830587 18.461726  1
1.589169  33.948668 17.512335  1
3.228546  33.281765 19.317574  1
4.413983  33.916219 18.565479  1
5.493069  34.297041 19.590010  1
6.775611  34.916884 19.002877  1
6.487490  36.249597 18.305341  1
7.936856  35.051066 20.028832  1
7.738476  35.978330 21.247344  1
6.706682  35.490679 22.265647  1
6.361814  36.461735 23.404096  1
5.903800  37.825264 22.878528  1
5.237562  35.841842 24.246525  1
1.206805  27.886738 23.877908  4
1.318137  29.162240 25.109566  4
2.761989  28.636565 24.214381  4
0.354604  29.805253 22.712307  4
3.746464  30.691983 24.163465  4
3.864608  32.099289 23.132040  4
4.315690  30.509440 22.488335  4
2.647812  32.283237 21.298149  4
1.147008  32.599243 22.073743  4
0.016952  30.910700 20.659927  4
1.533513  30.416022 19.921513  4
0.268463  33.204762 19.720283  4
0.080874  31.924086 18.545785  4
2.360495  31.983971 17.846608  4
1.331083  34.857372 18.062268  4
0.714511  33.643056 16.924198  4
2.383307  34.190532 16.799940  4
3.666353  32.383125 19.764469  4
2.894337  33.969179 20.094114  4
4.078383  34.823280 18.049257  4
4.812542  33.220341 17.820114  4
5.746444  33.432845 20.207602  4
4.992470  35.045215 20.202127  4
7.139657  34.215473 18.235784  4
7.130402  37.058675 18.664031  4
5.451986  36.575698 18.439209  4
6.665281  36.151352 17.228714  4
8.807132  35.433612 19.476992  4
8.231953  34.053547 20.378761  4
7.501417  36.985976 20.895979  4
8.704127  36.057896 21.765551  4
7.022647  34.521683 22.667378  4
5.755432  35.311992 21.787053  4
7.242017  36.597006 24.043778  4
6.764667  38.472263 22.681251  4
5.263858  38.341189 23.603819  4
5.333378  37.731567 21.946673  4
4.300251  35.780156 23.670040  4
5.043100  36.446399 25.133373  4
5.495309  34.830858 24.571713  4
24.077145  29.318554 19.803189  1
25.241658  30.065460 19.253615  1
25.262620  31.345050 18.846051  1
24.049602  32.250056 18.844109  1
26.510139  31.975478 18.296993  1
27.825826  31.796354 19.068774  1
28.977431  32.666016 18.526947  1
28.922023  34.200006 18.793758  1
30.114948  34.861481 18.097439  1
27.603034  34.881384 18.382216  1
27.561188  36.418526 18.476467  1
26.174037  36.896698 18.022286  1
25.942997  38.418598 18.087741  1
26.885081  39.171311 17.143496  1
24.462014  38.840617 17.869411  1
23.804891  38.539932 16.504962  1
23.572460  37.056100 16.215895  1
23.074559  36.706819 14.805914  1
23.994072  37.265401 13.716102  1
23.011735  35.177852 14.678600  1
24.413965  28.641776 20.592990  4
23.615783  28.726919 19.008081  4
23.326619  29.978138 20.238216  4
26.163497  29.481081 19.178679  4
23.111853  31.695748 18.754904  4
24.073753  32.944962 17.998254  4
24.019685  32.841597 19.767956  4
26.265142  33.023308 18.261430  4
26.645509  31.689422 17.246597  4
28.139888  30.747113 18.980367  4
27.690647  31.990531 20.138819  4
29.100819  32.467377 17.455175  4
29.901035  32.295864 18.999522  4
29.047075  34.343805 19.874621  4
30.005931  34.832137 17.010226  4
31.053352  34.357883 18.362233  4
30.216090  35.906154 18.405807  4
26.836034  34.564763 19.096643  4
27.328584  34.581949 17.371145  4
28.320111  36.848076 17.812092  4
27.770612  36.746314 19.499873  4
25.395010  36.377548 18.584473  4
26.138879  36.582869 16.980496  4
26.189429  38.728868 19.115331  4
26.351957  39.852135 16.473526  4
27.474833  38.496333 16.516497  4
27.587503  39.778077 17.725584  4
24.416822  39.929788 18.010529  4
23.840513  38.419255 18.669891  4
24.393528  39.009549 15.712515  4
22.825659  39.038170 16.490311  4
22.903133  36.638432 16.975980  4
24.495388  36.502643 16.303910  4
22.063929  37.109376 14.668706  4
23.727029  38.300180 13.478322  4
23.917797  36.684699 12.789431  4
25.046115  37.252447 14.025217  4
24.021444  34.737172 14.709901  4
22.552248  34.889001 13.732428  4
22.429946  34.734608 15.490589  4
34.247532  8.872931 36.748918  1
32.810310  8.563388 36.982511  1
32.131873  7.491117 36.542220  1
32.735401  6.409181 35.672956  1
30.671908  7.306516 36.841612  1
30.186667  7.501997 38.285597  1
28.722267  7.072838 38.503403  1
28.400306  5.548462 38.503404  1
26.886788  5.367720 38.651975  1
28.924712  4.776116 37.277902  1
28.493071  3.302429 37.153921  1
29.112536  2.719478 35.875036  1
28.811348  1.231739 35.610911  1
27.313647  0.990119 35.400655  1
29.654569  0.613345 34.459543  1
29.469507  1.169945 33.031295  1
29.977580  2.597972 32.826496  1
29.663574  3.244466 31.469515  1
28.164992  3.223045 31.154867  1
30.152029  4.699909 31.501002  1
34.673325  9.338051 37.642017  4
34.338456  9.571489 35.912956  4
34.836356  7.981400 36.534331  4
32.273299  9.311496 37.573150  4
33.573493  6.771500 35.072194  4
32.001061  6.013918 34.963405  4
33.086070  5.577058 36.296583  4
30.482918  6.289314 36.543590  4
30.067319  7.910840 36.154045  4
30.253648  8.570597 38.532506  4
30.833214  6.977837 38.998485  4
28.085071  7.599387 37.782221  4
28.424309  7.459114 39.491024  4
28.874976  5.118866 39.394874  4
26.358002  5.695264 37.753155  4
26.504049  5.943095 39.504492  4
26.635742  4.319185 38.836941  4
30.013489  4.711850 37.374749  4
28.654128  5.301579 36.362522  4
27.400939  3.244707 37.077845  4
28.809883  2.734147 38.034461  4
30.191549  2.887290 35.869980  4
28.649967  3.314049 35.089182  4
29.108709  0.685807 36.520017  4
27.101953  0.447599 34.474664  4
26.740929  1.921496 35.368075  4
26.915471  0.387275 36.224319  4
29.402780  -0.455857 34.418813  4
30.718638  0.649926 34.725993  4
28.418423  1.079461 32.744869  4
30.027365  0.517711 32.345192  4
31.053194  2.633729 33.031312  4
29.522333  3.269214 33.539267  4
30.207196  2.711832 30.680194  4
27.881529  2.273522 30.689387  4
27.888635  4.025199 30.460657  4
27.557444  3.348536 32.059108  4
29.561484  5.299319 32.212801  4
30.053561  5.160284 30.517048  4
31.200266  4.761283 31.803825  4
39.130232  28.769174 11.246202  1
38.168793  29.806032 10.780850  1
38.127726  31.096047 11.152429  1
39.062667  31.710899 12.171396  1
37.090549  32.037870 10.611648  1
36.841260  32.066243 9.096454  1
35.920696  33.218550 8.648312  1
36.496935  34.665845 8.674162  1
35.387365  35.641864 8.272018  1
37.134167  35.085046 10.012662  1
37.571159  36.557008 10.138375  1
38.172328  36.768885 11.535809  1
38.698837  38.188103 11.822955  1
37.572485  39.224996 11.779594  1
39.524584  38.299623 13.136266  1
38.815660  38.012846 14.477582  1
38.408271  36.554130 14.690943  1
37.557188  36.259699 15.934696  1
36.290536  37.119103 15.981888  1
37.160313  34.776520 15.910867  1
39.379027  28.100297 10.417971  4
38.672728  28.181050 12.046130  4
40.063678  29.199072 11.608768  4
37.422801  29.447335 10.065493  4
39.441429  30.979213 12.889561  4
38.555938  32.481791 12.761227  4
39.916680  32.178353 11.664980  4
37.443678  33.005069 10.926385  4
36.143423  31.903361 11.148625  4
36.351266  31.126076 8.807748  4
37.782967  32.109532 8.537625  4
34.983844  33.168559 9.216807  4
35.638865  33.008843 7.604292  4
37.277774  34.715585 7.904489  4
34.617234  35.707328 9.044927  4
34.908470  35.328384 7.335684  4
35.792158  36.643944 8.102788  4
38.075169  34.534091 10.112202  4
36.462911  34.844335 10.836508  4
36.698217  37.210352 10.024424  4
38.297573  36.809775 9.359213  4
38.959681  36.035305 11.721254  4
37.329165  36.569482 12.194873  4
39.402107  38.431456 11.011087  4
37.535227  39.842219 12.681951  4
36.586721  38.766026 11.660659  4
37.724388  39.903174 10.932605  4
39.900397  39.331195 13.189873  4
40.419787  37.669334 13.059300  4
37.957203  38.681945 14.579379  4
39.509084  38.285204 15.285255  4
39.302495  35.921411 14.676634  4
37.792825  36.208041 13.874055  4
38.154988  36.445674 16.834861  4
36.499821  38.090729 16.440976  4
35.501235  36.639417 16.572359  4
35.884891  37.301493 14.979541  4
36.473813  34.564817 15.075050  4
36.653272  34.498887 16.835872  4
38.035356  34.132379 15.794026  4
11.832750  7.471192 34.223311  1
11.424388  8.701025 33.490683  1
12.169010  9.797258 33.272261  1
13.579326  9.976596 33.791199  1
11.626399  10.980485 32.523423  1
10.899296  10.738321 31.192468  1
10.586942  12.035160 30.419987  1
11.772589  12.785090 29.742324  1
11.239775  14.075264 29.112215  1
12.965381  13.082986 30.670699  1
14.089408  13.962235 30.090248  1
15.171533  14.141893 31.165352  1
16.397880  14.971773 30.739657  1
16.011161  16.415613 30.405784  1
17.576827  14.918278 31.752722  1
17.356825  15.493557 33.168560  1
16.384634  14.698948 34.041936  1
16.013628  15.327160 35.393103  1
15.460281  16.746359 35.235338  1
14.952269  14.443182 36.063920  1
11.397626  6.593037 33.738776  4
11.466122  7.521381 35.251974  4
12.913686  7.333366 34.236296  4
10.399992  8.683766 33.106993  4
13.771239  9.394797 34.696332  4
13.776214  11.021237 34.053703  4
14.303985  9.677775 33.023160  4
12.500463  11.581917 32.340319  4
11.005358  11.593927 33.187863  4
9.940131  10.246431 31.405555  4
11.462709  10.053561 30.548539  4
10.027489  12.714600 31.074777  4
9.884790  11.761894 29.616438  4
12.136559  12.144214 28.929067  4
10.942876  14.797249 29.877306  4
10.369153  13.871530 28.475944  4
11.998017  14.539999 28.475228  4
13.468493  12.131164 30.870344  4
12.612056  13.529244 31.599818  4
13.685864  14.946308 29.824499  4
14.508311  13.504134 29.188402  4
15.493255  13.168308 31.540962  4
14.644000  14.677434 31.952724  4
16.782077  14.511560 29.815787  4
16.613999  17.148213 30.950288  4
14.962037  16.629377 30.629779  4
16.164772  16.603674 29.337408  4
18.407023  15.483331 31.305802  4
17.940801  13.886143 31.835166  4
17.050115  16.539607 33.086625  4
18.329881  15.502580 33.678885  4
16.769147  13.682654 34.181475  4
15.432989  14.585173 33.544659  4
16.901429  15.353794 36.036026  4
16.274995  17.476772 35.198486  4
14.810770  17.020070 36.074962  4
14.871032  16.853656 34.316759  4
14.004810  14.467954 35.501426  4
14.746401  14.790726 37.077150  4
15.279101  13.401852 36.119451  4
20.343589  23.598174 32.716868  1
20.733099  22.773247 31.540531  1
20.287011  22.900333 30.280074  1
19.249038  23.914488 29.850477  1
20.756115  21.987533 29.183740  1
22.263035  21.731468 29.034123  1
22.629337  20.961967 27.749689  1
22.528969  21.718529 26.391410  1
22.856572  20.739439 25.260245  1
21.178663  22.415060 26.136669  1
20.974999  23.037492 24.742202  1
19.577275  23.672261 24.691651  1
19.216922  24.378064 23.370353  1
19.182605  23.393052 22.198060  1
17.912497  25.222054 23.442704  1
16.579018  24.493354 23.716152  1
16.443915  23.904759 25.121373  1
15.206034  23.033290 25.378556  1
15.089375  21.887208 24.369549  1
15.309274  22.450050 26.795266  1
21.212887  23.752688 33.361623  4
19.571888  23.075889 33.288514  4
19.971501  24.581830 32.431281  4
21.456176  21.981699 31.758508  4
18.580384  24.202584 30.665640  4
18.607766  23.515231 29.057814  4
19.740956  24.817020 29.466080  4
20.391611  22.463877 28.289610  4
20.212993  21.035429 29.228465  4
22.597843  21.123053 29.885647  4
22.833155  22.666368 29.077733  4
22.050032  20.031106 27.713905  4
23.679172  20.647092 27.859611  4
23.306656  22.492976 26.395695  4
22.069168  19.990353 25.143445  4
23.801814  20.216751 25.454271  4
22.973964  21.267499 24.309438  4
21.125916  23.278772 26.807610  4
20.359656  21.725350 26.338601  4
21.037285  22.254239 23.977672  4
21.749572  23.783814 24.537989  4
19.446914  24.360969 25.528993  4
18.917668  22.815979 24.821076  4
20.024323  25.099960 23.170581  4
18.245621  23.442347 21.635713  4
19.312356  22.355797 22.520235  4
19.991279  23.623364 21.495642  4
17.805291  25.726970 22.472232  4
18.039803  26.028762 24.175912  4
16.425260  23.728252 22.950657  4
15.767952  25.222498 23.582459  4
16.508803  24.710700 25.860577  4
17.269665  23.243460 25.337425  4
14.306131  23.657324 25.323733  4
14.578264  22.222641 23.461326  4
14.515277  21.047983 24.779262  4
16.073014  21.499957 24.077991  4
16.145038  21.735289 26.868113  4
14.394004  21.919320 27.060613  4
15.476868  23.234666 27.537263  4
34.891415  14.005608 27.653826  1
34.966500  12.973780 28.724192  1
34.211819  12.901977 29.832885  1
33.154342  13.920050 30.201286  1
34.401232  11.807903 30.843990  1
34.495985  10.357134 30.348960  1
34.467983  9.318128 31.487276  1
33.115756  9.076648 32.222498  1
33.347609  8.074790 33.357399  1
32.429596  10.350836 32.750710  1
31.175727  10.148974 33.622778  1
30.650459  11.528499 34.047186  1
29.368572  11.515761 34.901848  1
29.594743  10.813461 36.243981  1
28.726691  12.919222 35.095146  1
29.530144  13.997434 35.854005  1
30.770941  14.509912 35.121112  1
31.684600  15.458807 35.910274  1
32.135857  14.849158 37.240652  1
32.919736  15.768250 35.052032  1
35.071385  13.540092 26.681114  4
35.658419  14.765341 27.825858  4
33.915413  14.488201 27.607866  4
35.733048  12.209194 28.566979  4
33.355667  14.907229 29.777572  4
33.098551  14.060221 31.285808  4
32.169908  13.583656 29.851946  4
33.538462  11.904750 31.480766  4
35.251607  12.041497 31.496508  4
35.449804  10.233381 29.817666  4
33.705693  10.130042 29.624500  4
35.259207  9.557471 32.208425  4
34.762312  8.354661 31.041758  4
32.435315  8.608094 31.499975  4
33.947849  8.514367 34.158186  4
33.866044  7.179433 32.991487  4
32.396749  7.740753 33.782776  4
32.046887  10.898315 31.883102  4
33.147057  10.960251 33.299447  4
31.440650  9.578173 34.520482  4
30.410192  9.593113 33.071745  4
30.506190  12.161901 33.169437  4
31.467050  11.923917 34.648746  4
28.625181  10.926182 34.342648  4
29.286378  11.426632 37.095764  4
30.642772  10.543199 36.402484  4
29.006810  9.889796 36.283554  4
27.791949  12.768071 35.653412  4
28.419742  13.317786 34.119695  4
29.785554  13.620697 36.847907  4
28.863480  14.855408 36.017685  4
30.469646  14.965379 34.171404  4
31.422505  13.690143 34.857863  4
31.151376  16.397096 36.104018  4
31.390077  15.030481 38.021390  4
33.082086  15.284942 37.581964  4
32.283640  13.765393 37.162366  4
33.541566  14.868518 34.916016  4
33.537887  16.530621 35.527936  4
32.634996  16.128908 34.060509  4
38.495798  25.587013 21.369803  1
38.888851  26.633128 20.386369  1
38.411333  26.793093 19.141264  1
37.389588  25.875694 18.504972  1
38.906819  27.890306 18.243585  1
38.998002  29.316383 18.806395  1
39.306801  30.379821 17.734096  1
38.177661  30.750261 16.726525  1
38.735239  31.754884 15.713946  1
37.533038  29.550312 16.006830  1
36.527259  29.876184 14.886269  1
36.007453  28.555471 14.299214  1
34.956098  28.694876 13.181600  1
35.532009  29.406277 11.953622  1
34.269093  27.354788 12.792668  1
35.138228  26.230783 12.188381  1
36.138974  25.599736 13.157726  1
37.131853  24.596039 12.553794  1
37.916656  25.196047 11.383630  1
38.114340  24.164873 13.652297  1
38.486814  26.013508 22.376423  4
39.221533  24.769932 21.342021  4
37.500644  25.186801 21.177226  4
39.656294  27.327144 20.741721  4
37.414213  24.865718 18.922018  4
37.569233  25.765489 17.430480  4
36.380372  26.285162 18.639613  4
38.205035  27.880514 17.427106  4
39.862039  27.601387 17.787994  4
39.814055  29.347775 19.541534  4
38.084419  29.592157 19.345181  4
40.219606  30.091689 17.198240  4
39.565779  31.304872 18.273164  4
37.389645  31.257446 17.297818  4
39.465218  31.285061 15.049738  4
39.224629  32.595160 16.222635  4
37.933132  32.176892 15.101415  4
36.923902  29.017078 16.744095  4
38.307069  28.895732 15.607270  4
37.030560  30.443189 14.094395  4
35.701928  30.481381 15.275152  4
35.621057  27.916467 15.095974  4
36.906015  28.106998 13.879083  4
34.153007  29.331625 13.584757  4
35.377749  28.840657 11.030107  4
36.606284  29.591505 12.043923  4
35.040426  30.376532 11.821945  4
33.498640  27.596286 12.046792  4
33.720594  26.961110 13.657968  4
35.639163  26.607447 11.292728  4
34.462125  25.435525 11.845159  4
35.597427  25.149485 13.996877  4
36.775043  26.355922 13.592992  4
36.586001  23.710296 12.207736  4
37.354509  25.095604 10.449542  4
38.879367  24.690576 11.244213  4
38.125289  26.261586 11.537296  4
38.756324  25.006113 13.960296  4
38.763816  23.364552 13.295264  4
37.586683  23.806733 14.539757  4
35.585755  31.762448 23.025815  1
35.323471  31.426218 21.599580  1
34.345051  30.640728 21.120416  1
33.342795  29.914797 21.991596  1
34.200182  30.373091 19.649840  1
34.250314  31.560903 18.677545  1
33.872576  31.185214 17.231083  1
32.376603  30.877244 16.923510  1
32.255796  30.451395 15.457381  1
31.726864  29.832576 17.850809  1
30.301093  29.377119 17.485879  1
29.840678  28.340972 18.521993  1
28.410748  27.800623 18.329202  1
28.270526  27.040637 17.006910  1
27.889131  26.957900 19.527873  1
28.616744  25.640516 19.872870  1
30.031664  25.813214 20.427414  1
30.846607  24.527122 20.626874  1
30.937004  23.698092 19.342449  1
32.262203  24.914958 21.078058  1
35.921863  32.799901 23.103176  4