NumberOfAtoms 2671
SpinPolarized yes
#FixSpin .true.
#TotalSpin
NumberOfSpecies 4
MD.TypeOfRun  nose
MD.FinalTimeStep 50
MD.LengthTimeStep 0.5  fs
MD.InitialTemperature 300 K
MD.TargetTemperature  300  K
%block ChemicalSpeciesLabel
1 6 C
2 8 O
3 7 N
4 1 H
%endblock ChemicalSpeciesLabel
PAO.BasisSize dzp
 PAO.EnergyShift 0.02 Ry
MeshCutoff          100 Ry
MaxSCFIterations    100
DM.NumberPulay       3
DM.Tolerance         1e-3
WriteDenchar	.true.
%block ProjectedDensityOfStates
-10.0 10.0 0.200 500 eV
%endblock ProjectedDensityOfStates
NetCharge 0.00
%block BandLines
1  1.000  1.000 1.000  L
20 0.00   0.00   0.00  \Gamma
25 2.00   0.000  0.00  X
30 2.00   2.00   2.00  \Gamma
%endblock BandLines
LongOutput .true.
WriteCoorXmol .true.
LatticeConstant 1 Ang
%block LatticeVectors
  30 0.0 0.0
  0.0 30 0.0
0.0 0.0 30
%endblock LatticeVectors
#UseSaveData .true.
%block kgrid_Monkhorst_Pack
1 0 0 0.0
 0 1 0 0.0
 0 0 1 0.0
%endblock kgrid_Monkhorst_Pack
WriteMDXmol .true.
AtomicCoordinatesFormat Ang
%block AtomicCoordinatesAndAtomicSpecies
49.467941  36.845087 18.191581  1
48.021680  36.503195 18.277781  1
47.387335  35.925092 19.310884  1
48.077510  35.477214 20.581125  1
45.917227  35.622492 19.261640  1
44.955484  36.721619 18.786524  1
43.469522  36.365214 18.988952  1
42.908051  36.373165 20.442247  1
41.448313  35.911313 20.405699  1
43.718823  35.541047 21.453980  1
43.114842  35.387159 22.862868  1
44.065817  34.527807 23.709199  1
43.631526  34.300583 25.169885  1
42.313741  33.524257 25.250250  1
44.729637  33.651134 26.059519  1
45.211566  32.226354 25.710677  1
46.003488  32.116285 24.406804  1
46.357093  30.695910 23.942637  1
45.117773  29.804269 23.823174  1
47.044964  30.790342 22.573035  1
49.591344  37.787838 17.651901  4
49.996436  36.058051 17.647198  4
49.925987  36.969495 19.172552  4
47.440093  36.754893 17.385982  4
49.132262  35.237490 20.424224  4
47.616302  34.570035 20.985183  4
48.007110  36.262200 21.344768  4
45.680928  35.367174 20.280567  4
45.742038  34.697119 18.699078  4
45.110128  36.876324 17.709718  4
45.173093  37.679750 19.271916  4
43.264002  35.403110 18.503674  4
42.887179  37.107779 18.420746  4
42.917894  37.415498 20.785799  4
41.374233  34.849629 20.156468  4
40.874806  36.479443 19.662296  4
40.963970  36.073047 21.373126  4
44.655922  36.076254 21.639298  4
43.919970  34.550971 21.045890  4
42.145090  34.880566 22.793476  4
42.961408  36.368166 23.324114  4
45.074482  34.945282 23.681543  4
44.055406  33.571471 23.189233  4
43.453419  35.297662 25.602377  4
42.383176  32.645387 25.897836  4
41.972675  33.177919 24.270325  4
41.528737  34.166887 25.663995  4
44.328021  33.609136 27.081865  4
45.596802  34.321450 26.116772  4
44.354318  31.548024 25.710961  4
45.865832  31.887558 26.525849  4
46.904735  32.735289 24.475812  4
45.435211  32.519201 23.581833  4
47.059464  30.246590 24.654702  4
44.872513  29.352184 24.789654  4
45.277379  28.987917 23.109138  4
44.241092  30.369195 23.484350  4
46.341835  31.144062 21.801553  4
47.416879  29.813556 22.260987  4
47.888153  31.485078 22.598394  4
34.889061  45.091535 14.094527  1
34.967095  44.031558 15.136809  1
34.196088  42.936288 15.235951  1
33.057955  42.617105 14.290846  1
34.374268  41.947155 16.351782  1
35.791090  41.450341 16.675133  1
35.816475  40.283994 17.682641  1
35.337721  38.884823 17.192237  1
35.371798  37.913217 18.375579  1
33.953041  38.874496 16.517010  1
33.368162  37.494139 16.162086  1
31.994073  37.701088 15.507739  1
31.276048  36.416105 15.052655  1
30.950690  35.503745 16.239010  1
30.020026  36.674663 14.172521  1
28.826012  37.427909 14.797737  1
29.086777  38.902816 15.107566  1
27.983720  39.642032 15.878784  1
27.626607  38.936410 17.190187  1
28.476969  41.062914 16.188130  1
35.895813  45.438549 13.846948  4
34.311397  45.936993 14.477396  4
34.431542  44.735726 13.171671  4
35.740060  44.193169 15.893981  4
32.626388  43.512015 13.835355  4
32.236665  42.115456 14.813131  4
33.407781  41.951734 13.491338  4
33.772220  41.110172 16.041569  4
33.885041  42.314702 17.262305  4
36.356119  42.279964 17.122152  4
36.330433  41.162262 15.765685  4
35.270296  40.581166 18.586385  4
36.864180  40.165967 18.001653  4
36.070057  38.534264 16.453743  4
34.599305  38.155294 19.110038  4
36.346122  37.941908 18.879762  4
35.217405  36.883792 18.039263  4
34.062683  39.359436 15.541431  4
33.234358  39.414953 17.132356  4
33.240731  36.903035 17.076540  4
34.042148  36.952746 15.490297  4
32.077668  38.397073 14.670439  4
31.413227  38.161777 16.304880  4
31.983398  35.874722 14.404967  4
29.896228  35.214245 16.269041  4
31.185896  35.969179 17.200561  4
31.535516  34.579955 16.168438  4
29.644596  35.691214 13.856089  4
30.321084  37.180944 13.246442  4
28.489858  36.890359 15.688269  4
27.992379  37.381285 14.083431  4
29.329354  39.431632 14.179297  4
29.955117  39.010505 15.740215  4
27.088124  39.713570 15.250262  4
26.882817  38.152003 17.016695  4
27.202993  39.635768 17.920394  4
28.504395  38.470487 17.653781  4
29.317716  41.042720 16.900471  4
27.678980  41.659064 16.632679  4
28.819690  41.570873 15.283260  4
29.844199  29.756567 32.338211  1
30.472899  30.979838 32.907716  1
30.032972  31.705682 33.948635  1
28.759221  31.405169 34.708703  1
30.761310  32.933145 34.415612  1
32.281770  32.854138 34.617416  1
32.874605  34.101029 35.302902  1
32.590410  34.304228 36.821232  1
33.202402  35.637903 37.259699  1
31.103455  34.229424 37.217142  1
30.758735  34.583639 38.676298  1
29.239879  34.452612 38.863454  1
28.719954  34.737668 40.285517  1
28.987264  36.187152 40.701735  1
27.229198  34.349693 40.500458  1
26.150764  35.089786 39.679978  1
26.160804  34.784999 38.181197  1
25.214674  35.623332 37.309425  1
25.445395  37.126363 37.490738  1
25.451589  35.250012 35.838915  1
30.622174  29.057391 32.020139  4
29.240680  30.028548 31.468226  4
29.215013  29.236595 33.060252  4
31.385774  31.302284 32.398217  4
28.021160  30.876910 34.099773  4
28.271842  32.325529 35.046858  4
28.983504  30.795705 35.593326  4
30.294114  33.156299 35.359627  4
30.508327  33.787330 33.775415  4
32.758573  32.766194 33.631373  4
32.563836  31.956638 35.179473  4
32.582440  34.993128 34.735297  4
33.968357  34.031294 35.192327  4
33.117602  33.504842 37.357546  4
32.660856  36.483773 36.828411  4
34.252914  35.708906 36.950321  4
33.183880  35.735859 38.349067  4
30.796354  33.181741 37.133518  4
30.508814  34.854867 36.551956  4
31.054040  35.619077 38.882536  4
31.294820  33.925793 39.368046  4
28.904598  33.466503 38.535384  4
28.846519  35.211544 38.189406  4
29.294336  34.088523 40.964955  4
28.085274  36.695714 41.054413  4
29.398456  36.787155 39.884761  4
29.711142  36.210023 41.523846  4
27.002161  34.531479 41.560485  4
27.109708  33.267695 40.360534  4
26.233746  36.163893 39.865488  4
25.169520  34.789718 40.073008  4
25.981550  33.715321 38.026817  4
27.135422  34.981325 37.759968  4
24.176407  35.382478 37.566799  4
24.877628  37.503781 38.347368  4
25.123939  37.691606 36.608175  4
26.503671  37.358082 37.660651  4
26.453610  35.567431 35.507418  4
24.718538  35.737800 35.195096  4
25.376812  34.170597 35.685480  4
3.269096  31.397121 3.489857  1
4.595431  30.882994 3.928605  1
5.588722  31.587177 4.495524  1
5.527904  33.077865 4.749691  1
6.889216  30.942795 4.881135  1
6.852060  29.626224 5.671087  1
8.233954  29.185265 6.192631  1
8.857336  29.985054 7.375472  1
10.253172  29.424638 7.663667  1
8.913753  31.510412 7.166968  1
9.666251  32.326048 8.235576  1
9.610638  33.810200 7.844019  1
10.288414  34.781752 8.829185  1
11.793228  34.516829 8.934294  1
9.993591  36.280934 8.538307  1
10.487012  36.882412 7.204626  1
9.774790  36.354533 5.958261  1
10.346611  36.803424 4.605683  1
11.837504  36.478848 4.474924  1
9.573858  36.085177 3.489946  1
2.499780  30.645986 3.687873  4
3.293735  31.598555 2.415659  4
2.979418  32.306088 4.016596  4
4.751665  29.814924 3.750504  4
4.858995  33.595297 4.057296  4
6.511766  33.542362 4.626374  4
5.187834  33.271448 5.774965  4
7.373141  31.696141 5.479067  4
7.532960  30.836986 3.999159  4
6.486054  28.832348 5.005385  4
6.144523  29.681470 6.506140  4
8.934871  29.137911 5.350106  4
8.123256  28.145024 6.537634  4
8.233909  29.793253 8.258158  4
10.950786  29.663011 6.856642  4
10.222436  28.333844 7.780086  4
10.652346  29.833390 8.596535  4
7.888213  31.887249 7.239113  4
9.334921  31.737367 6.188010  4
10.714496  32.006940 8.270555  4
9.222099  32.166736 9.223510  4
8.576113  34.115145 7.673079  4
10.155112  33.832533 6.901628  4
9.848721  34.581563 9.818898  4
12.390701  35.417747 8.767038  4
12.135711  33.763996 8.218420  4
12.036825  34.151642 9.938130  4
10.467466  36.860922 9.342860  4
8.917154  36.468178 8.642229  4
11.569061  36.746620 7.128888  4
10.320460  37.967673 7.247308  4
8.706834  36.590014 6.023018  4
9.833939  35.277301 5.914327  4
10.199597  37.883929 4.491024  4
12.446233  37.274097 4.917241  4
12.136838  36.380818 3.424905  4
12.095115  35.539211 4.978147  4
9.774047  35.001490 3.505445  4
9.870484  36.463960 2.510997  4
8.495596  36.225919 3.598631  4
20.685140  34.757972 3.808443  1
19.307536  34.212566 3.664469  1
18.707639  33.310471 4.458350  1
19.378093  32.652429 5.644909  1
17.308902  32.833869 4.190778  1
16.219030  33.876739 3.902046  1
14.797254  33.282523 3.862773  1
14.151214  32.844781 5.211252  1
12.786783  32.213854 4.918443  1
15.016824  31.900805 6.067408  1
14.356959  31.313599 7.329631  1
15.375422  30.404574 8.033565  1
14.891026  29.756988 9.344989  1
13.708305  28.814454 9.103124  1
16.019005  29.057923 10.156192  1
16.738586  27.847473 9.522980  1
17.618349  28.180706 8.317030  1
18.217999  26.986375 7.560760  1
17.143200  25.994819 7.105973  1
18.967376  27.518038 6.330450  1
20.693406  35.814630 3.527961  4
21.363270  34.214244 3.145433  4
21.055548  34.689990 4.831069  4
18.750983  34.601315 2.806550  4
20.465097  32.605736 5.540840  4
19.039814  31.618491 5.769359  4
19.138053  33.200603 6.564798  4
17.051825  32.298458 5.088821  4
17.316156  32.066869 3.406468  4
16.414976  34.319434 2.915646  4
16.253323  34.700468 4.624037  4
14.775491  32.456600 3.141140  4
14.142924  34.059029 3.435839  4
13.976468  33.757009 5.795963  4
12.895305  31.250422 4.413668  4
12.179428  32.869025 4.281104  4
12.223282  32.057279 5.842895  4
15.845270  32.493318 6.469341  4
15.395440  31.083625 5.454124  4
13.484570  30.714608 7.043242  4
14.023452  32.115058 7.996789  4
16.306192  30.948155 8.208617  4
15.547261  29.619443 7.299336  4
14.532493  30.577799 9.985819  4
13.873360  27.817703 9.522466  4
13.487815  28.685503 8.039505  4
12.808102  29.218304 9.579494  4
15.565428  28.703511 11.092627  4
16.765455  29.802875 10.460224  4
15.999548  27.081572 9.273532  4
17.385204  27.404637 10.293132  4
18.405672  28.878155 8.623399  4
17.047090  28.699094 7.561521  4
18.935784  26.470416 8.209467  4
16.911329  25.283085 7.904903  4
17.472954  25.416100 6.235285  4
16.212072  26.503026 6.828052  4
18.267516  27.957440 5.601194  4
19.506207  26.712339 5.830134  4
19.688382  28.291228 6.607212  4
39.990387  19.072189 13.524445  1
40.577396  19.906063 14.608911  1
39.924672  20.472523 15.637002  1
38.427543  20.381659 15.838986  1
40.641246  21.305212 16.660897  1
41.933728  20.755532 17.282272  1
42.449316  21.595425 18.467527  1
41.663087  21.522928 19.810647  1
42.304264  22.494000 20.806332  1
40.149775  21.784955 19.689803  1
39.358658  21.883715 21.008067  1
37.883654  22.149439 20.672105  1
36.934198  22.241704 21.882007  1
37.291832  23.423347 22.788382  1
35.426586  22.253684 21.499852  1
34.889457  23.433971 20.661784  1
35.400250  23.484988 19.221010  1
35.020795  24.730958 18.407670  1
35.442638  26.025848 19.108038  1
35.714573  24.647474 17.040338  1
40.686123  18.271866 13.258557  4
39.816395  19.692799 12.641465  4
39.052618  18.602813 13.820859  4
41.657160  20.063052 14.529112  4
37.885093  20.235523 14.901447  4
38.029676  21.301355 16.280361  4
38.188505  19.550533 16.514559  4
39.906309  21.432643 17.437340  4
40.808658  22.317471 16.272581  4
42.718212  20.760898 16.512913  4
41.813810  19.712280 17.595676  4
42.561115  22.637752 18.144367  4
43.471947  21.245654 18.680291  4
41.793874  20.507534 20.206187  4
42.129946  23.533106 20.515386  4
43.387828  22.332497 20.870632  4
41.899806  22.344903 21.811740  4
39.706807  20.914132 19.195443  4
39.973314  22.686361 19.103648  4
39.742942  22.718813 21.605400  4
39.465956  20.962694 21.590193  4
37.517589  21.399118 19.968210  4
37.918328  23.120287 20.180878  4
37.082520  21.320727 22.467447  4
36.434991  24.073294 22.988369  4
38.081665  24.050461 22.364799  4
37.647943  23.054311 23.756569  4
34.859079  22.248389 22.441212  4
35.168781  21.310446 21.001439  4
35.095620  24.369909 21.187637  4
33.795089  23.343465 20.622811  4
35.095786  22.573418 18.695161  4
36.479800  23.487022 19.200363  4
33.936137  24.742387 18.247555  4
34.677520  26.345266 19.823011  4
35.584335  26.842802 18.390919  4
36.384604  25.903883 19.656070  4
36.808136  24.734396 17.146434  4
35.378705  25.454933 16.388412  4
35.502934  23.697031 16.544216  4
30.967694  18.330607 12.810902  1
30.837656  19.649688 13.488475  1
29.913515  20.594428 13.249044  1
28.843829  20.478036 12.184773  1
29.903761  21.894009 14.001510  1
30.030023  21.858964 15.531737  1
29.787184  23.227522 16.198191  1
28.327782  23.771497 16.238430  1
28.343055  25.168327 16.866212  1
27.607080  23.792629 14.876991  1
26.224107  24.470362 14.838248  1
25.682105  24.389347 13.403400  1
24.280318  24.991759 13.189076  1
24.266426  26.497211 13.470355  1
23.660980  24.666778 11.799872  1
24.366815  25.203691 10.535963  1
25.724567  24.565959 10.237382  1
26.530154  25.186521 9.086781  1
26.743177  26.690782 9.279211  1
27.895873  24.487885 9.018842  1
31.285898  17.575360 13.534511  4
31.721212  18.399166 12.021856  4
30.027526  17.990159 12.377579  4
31.594643  19.845384 14.253705  4
29.141759  19.827068 11.358900  4
28.619865  21.452470 11.738377  4
27.917671  20.085171 12.623176  4
28.953821  22.327267 13.738574  4
30.645895  22.580852 13.576107  4
31.052068  21.547785 15.788543  4
29.358878  21.112091 15.970738  4
30.460169  23.967899 15.748403  4
30.118010  23.131578 17.244485  4
27.756991  23.113664 16.906290  4
28.821279  25.895351 16.204762  4
28.884438  25.164327 17.820789  4
27.326231  25.511548 17.078175  4
27.385709  22.754201 14.609398  4
28.246683  24.251944 14.123874  4
26.323709  25.524787 15.121335  4
25.539151  23.985690 15.541520  4
25.700352  23.355352 13.052721  4
26.404227  24.976105 12.838327  4
23.617438  24.512659 13.926634  4
23.845599  27.075039 12.642333  4
25.266449  26.894574 13.666790  4
23.650510  26.704568 14.352420  4
22.644657  25.085507 11.798142  4
23.526839  23.581633 11.704773  4
24.447855  26.291616 10.605652  4
23.710326  25.003475 9.677890  4
25.593707  23.489682 10.080290  4
26.383299  24.658756 11.087864  4
26.003080  25.013261 8.141041  4
25.888344  27.254650 8.892001  4
27.636102  27.041310 8.748583  4
26.866859  26.952282 10.336960  4
28.502370  24.718939 9.909609  4
28.454030  24.818379 8.141893  4
27.785002  23.402065 8.964319  4
23.651416  16.288233 28.404396  1
24.126165  14.885343 28.254380  1
25.380438  14.433931 28.418468  1
26.559411  15.321250 28.754830  1
25.727283  12.985928 28.223036  1
24.845133  11.921450 28.891964  1
25.427078  10.497048 28.799760  1
26.666574  10.156186 29.680013  1
27.114721  8.726672 29.362000  1
27.844753  11.139927 29.547639  1
29.148892  10.756978 30.272906  1
30.190400  11.855971 30.014855  1
31.554398  11.651292 30.701484  1
32.258761  10.391883 30.188201  1
32.487459  12.893683 30.631208  1
32.967812  13.375487 29.245181  1
31.874401  13.970215 28.356309  1
32.278195  14.308017 26.913814  1
32.878377  13.101293 26.186622  1
31.028095  14.782043 26.158536  1
22.653288  16.292891 28.850468  4
23.597609  16.761711 27.420522  4
24.299106  16.880599 29.050296  4
23.348815  14.168996 27.972467  4
26.422311  16.350062 28.412286  4
27.476564  14.961329 28.277089  4
26.724467  15.332904 29.839694  4
26.725536  12.912887 28.619763  4
25.840032  12.766837 27.154031  4
23.870727  11.909283 28.384282  4
24.645467  12.169771 29.940509  4
25.627418  10.260850 27.747404  4
24.623486  9.808047 29.104555  4
26.334069  10.174895 30.725801  4
27.543202  8.659166 28.358694  4
26.271016  8.027542 29.422894  4
27.864660  8.384227 30.081017  4
27.547837  12.071947 30.039700  4
28.065001  11.318123 28.495505  4
29.526670  9.808641 29.873141  4
28.969660  10.634138 31.345962  4
29.781170  12.832015 30.283786  4
30.331698  11.807245 28.936564  4
31.346321  11.499184 31.772234  4
33.278564  10.591158 29.846304  4
31.724249  9.924153 29.356302  4
32.328630  9.651416 30.992698  4
33.388032  12.649241 31.212126  4
32.019414  13.732300 31.162464  4
33.485175  12.555478 28.740280  4
33.724058  14.155842 29.407940  4
31.440737  14.846299 28.850866  4
31.060715  13.270831 28.235337  4
33.009272  15.125126 26.924335  4
33.950351  13.019531 26.393514  4
32.758529  13.186367 25.100275  4
32.403891  12.162344 26.496060  4
30.305145  13.959247 26.035890  4
31.293099  15.142634 25.163773  4
30.523736  15.591285 26.692407  4
12.790114  12.057863 15.410825  1
13.273753  13.353005 14.858837  1
12.665478  14.116835 13.936632  1
11.363773  13.746327 13.259330  1
13.272891  15.403325 13.455795  1
13.798542  16.402844 14.496669  1
14.192219  17.765644 13.893447  1
13.048834  18.714105 13.423901  1
13.675183  19.959390 12.789527  1
12.025419  18.070840 12.468806  1
10.971745  19.010055 11.851485  1
10.058272  18.182018 10.935494  1
8.915398  18.962229 10.258034  1
9.453867  20.039935 9.312361  1
7.867532  18.056409 9.550541  1
8.328976  17.190681 8.358262  1
9.279300  16.048808 8.722063  1
9.888906  15.269786 7.547561  1
10.608607  16.190613 6.557955  1
10.890914  14.250820 8.109328  1
13.041138  11.994230 16.472993  4
13.278508  11.232930 14.885429  4
11.709575  11.945604 15.324679  4
14.233909  13.689522 15.261030  4
11.201882  12.666044 13.222361  4
11.343738  14.092555 12.220737  4
10.519867  14.208582 13.787015  4
12.473821  15.864125 12.900471  4
14.045698  15.197199 12.704953  4
14.699814  15.978845 14.960666  4
13.075083  16.554224 15.305783  4
14.912332  17.602170 13.082219  4
14.751069  18.306023 14.673870  4
12.507645  19.036036 14.322821  4
14.155823  19.720479 11.837328  4
14.428909  20.401776 13.453245  4
12.918004  20.728292 12.610272  4
11.423930  17.371520 13.058811  4
12.543158  17.545320 11.666918  4
11.471935  19.779936 11.252349  4
10.391090  19.504688 12.636878  4
9.652911  17.327866 11.481902  4
10.742906  17.828154 10.166658  4
8.366002  19.474985 11.063133  4
9.025032  19.969788 8.308477  4
10.541349  19.994514 9.203501  4
9.202895  21.033425 9.700149  4
7.075629  18.719260 9.174020  4
7.378148  17.414688 10.294365  4
8.763994  17.838197 7.592438  4
7.433078  16.744883 7.904408  4
8.778590  15.367446 9.418634  4
10.141354  16.425933 9.251682  4
9.094860  14.724656 7.023563  4
9.902734  16.600871 5.828538  4
11.383578  15.652894 5.999359  4
11.094894  17.032493 7.065179  4
11.760120  14.758141 8.558547  4
11.260008  13.597391 7.317744  4
10.433645  13.627503 8.881760  4
23.973063  25.388018 29.119568  1
24.176587  26.314740 27.972505  1
24.326572  27.648328 28.026784  1
24.269664  28.452485 29.307621  1
24.513278  28.470229 26.783872  1
25.546699  28.009209 25.745476  1
25.799940  29.044205 24.631593  1
26.602751  30.328513 24.996872  1
26.656550  31.238791 23.766434  1
26.071884  31.097187 26.221902  1
26.731983  32.456106 26.523641  1
26.063324  33.056419 27.769288  1
26.629705  34.410264 28.238501  1
26.421800  35.502152 27.184815  1
26.111004  34.860177 29.634067  1
24.602163  35.141171 29.802552  1
23.703604  33.906949 29.709645  1
22.189923  34.165238 29.707110  1
21.774379  35.140438 28.601888  1
21.469643  32.825724 29.495468  1
24.503711  24.450459 28.933401  4
22.907031  25.171555 29.228212  4
24.351563  25.795433 30.056765  4
24.193981  25.829358 26.992197  4
23.666501  27.969518 30.080618  4
23.818114  29.435761 29.139634  4
25.282645  28.607353 29.700296  4
24.805226  29.434343 27.163984  4
23.544425  28.647526 26.300783  4
25.170580  27.096336 25.263235  4
26.497075  27.740169 26.220214  4
24.842426  29.309705 24.166777  4
26.371571  28.526864 23.844840  4
27.629747  30.013468 25.221834  4
25.673589  31.660878 23.541918  4
27.002889  30.686386 22.883695  4
27.358538  32.063234 23.921892  4
26.308672  30.500263 27.108782  4
24.995089  31.239211 26.134770  4
26.579124  33.134908 25.676450  4
27.808650  32.333690 26.680055  4
26.087009  32.338106 28.591432  4
25.034317  33.202049 27.445270  4
27.715551  34.270788 28.358601  4
25.930363  36.390469 27.592225  4
25.818620  35.157624 26.339826  4
27.390769  35.824670 26.787990  4
26.637497  35.791998 29.884593  4
26.429917  34.134697 30.393376  4
24.297819  35.906685 29.083964  4
24.455338  35.584348 30.797232  4
23.973251  33.200778 30.502606  4
23.873472  33.382187 28.781406  4
21.890290  34.571627 30.680413  4
21.879982  36.176120 28.940751  4
20.727751  34.994841 28.310130  4
22.385997  35.017997 27.699976  4
21.663155  32.428525 28.485776  4
20.391081  32.947410 29.603645  4
21.803255  32.076221 30.217422  4
15.644857  30.606824 18.833755  1
16.380521  29.808010 19.851933  1
17.554442  29.175790 19.690363  1
18.322196  29.141838 18.386580  1
18.184357  28.389546 20.804022  1
18.282877  29.033490 22.194848  1
19.138703  28.221437 23.186923  1
20.682950  28.210657 22.980606  1
21.309781  27.280780 24.023625  1
21.143708  27.828307 21.561139  1
22.659291  27.646811 21.352561  1
22.906872  27.266957 19.885069  1
24.383974  27.080616 19.488472  1
25.028491  25.919125 20.250858  1
24.612893  26.951652 17.955486  1
23.995137  25.743705 17.218475  1
22.468119  25.754910 17.132276  1
21.809390  24.493960 16.554320  1
22.234245  23.227762 17.303619  1
20.285459  24.653024 16.655460  1
15.167158  31.464733 19.314439  4
14.870605  29.986788 18.374218  4
16.300733  30.994190 18.054421  4
15.883422  29.740413 20.824160  4
17.674037  29.256781 17.514075  4
18.841365  28.186658 18.256024  4
19.074059  29.941077 18.371444  4
19.177695  28.191769 20.438784  4
17.716752  27.399875 20.877381  4
17.271024  29.102846 22.617580  4
18.664511  30.058974 22.133914  4
18.751252  27.196353 23.236545  4
18.955864  28.650059 24.185040  4
21.042312  29.227574 23.183881  4
21.062539  26.235203 23.822583  4
20.958221  27.528843 25.033179  4
22.398962  27.382170 24.031780  4
20.897911  28.667228 20.901790  4
20.631400  26.923998 21.234006  4
23.024212  26.837256 21.995465  4
23.195443  28.565107 21.613208  4
22.432940  27.995024 19.223433  4
22.397489  26.309241 19.793629  4
24.907351  28.002154 19.788109  4
25.514325  25.198931 19.586111  4
24.305458  25.364354 20.855823  4
25.799774  26.302023 20.928279  4
25.699536  26.897398 17.798916  4
24.295161  27.877842 17.459708  4
24.358403  24.820203 17.676938  4
24.385453  25.745554 16.191343  4
22.141692  26.646140 16.585167  4
22.032528  25.840878 18.116516  4
22.079776  24.396737 15.496167  4
23.174011  22.837077 16.900104  4
21.482283  22.435332 17.212191  4
22.381309  23.418018 18.373521  4
19.957469  24.653725 17.707654  4
19.778235  23.830330 16.149790  4
19.952351  25.590112 16.202497  4
11.529205  5.381906 23.758227  1
10.715196  6.625124 23.846482  1
9.838515  7.084133 22.938385  1
9.560450  6.404351 21.615121  1
9.087938  8.367793 23.148287  1
8.399931  8.604911 24.500762  1
7.487159  9.846981 24.514583  1
6.139043  9.771221 23.737265  1
5.447713  11.135173 23.821974  1
6.261635  9.311301 22.272061  1
4.980655  9.375782 21.418614  1
5.313662  8.883071 20.002471  1
4.129463  8.846613 19.017491  1
3.566381  10.248047 18.763290  1
4.441657  8.108482 17.684534  1
5.528783  8.693128 16.757015  1
6.954859  8.606706 17.303073  1
8.040992  9.322841 16.487341  1
7.708254  10.799925 16.257740  1
9.369377  9.217304 17.250328  1
11.611666  4.925382 24.748202  4
12.532737  5.628195 23.401367  4
11.086500  4.640153 23.093845  4
10.875188  7.210793 24.756590  4
10.408114  5.812585 21.260346  4
9.350441  7.136703 20.828669  4
8.687675  5.745384 21.706408  4
8.340219  8.348949 22.373822  4
9.725968  9.222943 22.893100  4
9.176363  8.762125 25.262205  4
7.828377  7.725200 24.817638  4
8.067586  10.719976 24.191533  4
7.233913  10.040154 25.569066  4
5.505154  9.044678 24.261576  4
5.984749  11.888952 23.240436  4
5.388025  11.481682 24.861540  4
4.421943  11.076240 23.446495  4
6.501617  8.243037 22.284909  4
7.049138  9.872550 21.769978  4
4.629753  10.412782 21.360570  4
4.189323  8.766497 21.867197  4
5.789741  7.901396 20.048491  4
6.035398  9.619472 19.653385  4
3.336578  8.255999 19.502721  4
3.503161  10.488102 17.697937  4
4.165990  11.031137 19.236334  4
2.551375  10.319798 19.169495  4
3.507647  8.087687 17.105360  4
4.674646  7.056902 17.895418  4
5.265359  9.722659 16.500736  4
5.499833  8.129678 15.814127  4
7.220513  7.555591 17.460427  4
7.018479  9.072440 18.275133  4
8.155311  8.822325 15.518494  4
7.067297  10.919342 15.378233  4
8.613717  11.394150 16.088081  4
7.185292  11.237559 17.116520  4
9.332502  9.793723 18.188984  4
10.190332  9.611768 16.650131  4
9.600174  8.180096 17.505677  4
9.749250  19.006944 0.632180  1
8.834843  20.041049 1.189384  1
9.105316  21.343046 1.377918  1
10.446224  21.978197 1.079590  1
8.089351  22.280735 1.964232  1
6.660495  22.262616 1.401376  1
5.779368  23.412102 1.928994  1
6.066326  24.851392 1.406042  1
5.131499  25.828818 2.124522  1
7.532967  25.305640 1.532540  1
7.833705  26.774788 1.179558  1
9.336833  27.024282 1.373148  1
9.823145  28.444804 1.027517  1
9.186347  29.495114 1.942412  1
11.371363  28.588142 0.988124  1
12.165114  28.355486 2.291878  1
12.170286  26.910335 2.792732  1
12.807567  26.668774 4.168767  1
12.180311  27.546623 5.255570  1
12.615081  25.191220 4.539817  1
9.180191  18.307788 0.013620  4
10.213671  18.451840 1.451483  4
10.529958  19.435659 0.004259  4
7.845963  19.669289 1.473663  4
11.272345  21.265417 1.143282  4
10.676246  22.775001 1.794533  4
10.439595  22.416916 0.073712  4
8.520029  23.252823 1.794538  4
8.067395  22.177037 3.056133  4
6.181402  21.320285 1.701112  4
6.662853  22.274507 0.305553  4
5.787939  23.393763 3.025793  4
4.743266  23.172021 1.642226  4
5.805099  24.865000 0.340136  4
5.398550  25.930300 3.179587  4
4.088969  25.491292 2.065048  4
5.172562  26.819114 1.661607  4
8.112622  24.745360 0.791575  4
7.900934  25.101458 2.537607  4
7.274408  27.435980 1.851780  4
7.532116  26.991731 0.149682  4
9.915304  26.286438 0.813315  4
9.474347  26.858320 2.440199  4
9.481817  28.651580 0.001029  4
9.928594  30.142178 2.418835  4
8.588525  29.046090 2.740858  4
8.522916  30.142871 1.358752  4
11.588191  29.615648 0.663369  4
11.777731  27.943395 0.198349  4
11.798077  29.039330 3.061713  4
13.208100  28.644727 2.102484  4
12.629978  26.265238 2.035958  4
11.160941  26.546034 2.912586  4
13.882734  26.876050 4.111308  4
12.661023  28.529869 5.283158  4
12.292522  27.097557 6.249300  4
11.108162  27.701466 5.085174  4
11.550203  24.961572 4.707112  4
13.154859  24.951210 5.456791  4
12.977182  24.531594 3.747323  4
19.315520  17.891052 5.160326  1
19.905156  19.251005 5.023038  1
21.209818  19.565196 4.967898  1
22.327548  18.551187 5.081547  1
21.671537  20.988452 4.839967  1
21.015831  21.881739 3.776551  1
21.721812  23.240251 3.597338  1
23.108646  23.254524 2.887502  1
23.649519  24.687289 2.898403  1
24.144790  22.275324 3.471409  1
25.576131  22.368283 2.909215  1
26.446976  21.320684 3.618640  1
27.912826  21.249342 3.149559  1
28.658428  22.556500 3.434361  1
28.690540  20.019448 3.698738  1
28.903408  19.904662 5.223683  1
27.632537  19.640176 6.032557  1
27.776557  19.683619 7.560733  1
28.381966  21.004515 8.044389  1
26.384356  19.508111 8.184325  1
18.401189  17.824891 4.564605  4
19.064881  17.706839 6.208338  4
19.988328  17.107922 4.811577  4
19.172728  20.062042 4.971366  4
22.034265  17.664255 5.648930  4
23.194360  18.972020 5.601630  4
22.652461  18.235342 4.082056  4
22.720387  20.891262 4.617025  4
21.643646  21.482665 5.818976  4
19.982507  22.089502 4.087087  4
20.952152  21.370193 2.809472  4
21.784318  23.741148 4.571285  4
21.049367  23.867152 2.990546  4
22.937791  22.972198 1.840753  4
23.926205  24.999218 3.908809  4
22.901853  25.392591 2.513858  4
24.530898  24.776097 2.256572  4
23.830505  21.264095 3.192871  4
24.183898  22.376939 4.555565  4
25.985544  23.365281 3.109832  4
25.574761  22.205366 1.826571  4
25.984006  20.334503 3.544075  4
26.428067  21.652081 4.655399  4
27.885788  21.116884 2.056553  4
29.588639  22.397178 3.987466  4
28.055853  23.263709 4.011673  4
28.925470  23.044947 2.490699  4
29.688973  20.042665 3.239562  4
28.223637  19.097489 3.329183  4
29.420844  20.798645 5.581539  4
29.590449  19.065783 5.401469  4
27.190001  18.690152 5.713511  4
26.886939  20.393353 5.826002  4
28.412046  18.852308 7.888339  4
29.475521  20.962891 8.012398  4
28.091233  21.225157 9.078093  4
28.059694  21.850605 7.425693  4
25.740510  20.374870 7.963227  4
26.457198  19.416273 9.268790  4
25.885196  18.615823 7.798408  4
15.511329  23.652024 22.647402  1
16.182283  22.406823 23.111391  1
17.480588  22.254236 23.419643  1
18.511376  23.355913 23.300338  1
18.032895  20.931080 23.866213  1
17.284542  20.152366 24.958155  1
18.062504  18.928393 25.480406  1
19.305102  19.184364 26.384736  1
19.959466  17.838466 26.710074  1
20.338441  20.167154 25.801890  1
21.656433  20.327238 26.583369  1
22.542946  21.338345 25.841158  1
23.896677  21.648452 26.508306  1
24.787840  20.404709 26.576343  1
24.649135  22.853603 25.875456  1
25.106889  22.744981 24.404876  1
23.973732  22.731479 23.377688  1
24.377847  22.459445 21.921447  1
25.166226  21.154512 21.777168  1
23.101694  22.374836 21.071640  1
14.506985  23.709882 23.075430  4
15.427252  23.636042 21.557558  4
16.046452  24.551619 22.950650  4
15.523115  21.537521 23.193325  4
18.244400  24.101459 22.547032  4