NumberOfAtoms 2383
SpinPolarized yes
#FixSpin .true.
#TotalSpin 
NumberOfSpecies 4

 


%block ChemicalSpeciesLabel
1  6  c
2  1  h
3  7  n
4  8  o
%endblock ChemicalSpeciesLabel

PAO.BasisSize szp 
 PAO.EnergyShift 0.02 Ry 
 
MeshCutoff          100 Ry
MaxSCFIterations    100  
DM.NumberPulay       3  
DM.Tolerance         1e-3
WriteDenchar	.true.

%block ProjectedDensityOfStates
-10.0 10.0 0.200 500 eV
%endblock ProjectedDensityOfStates
NetCharge 0.00

%block BandLines
1  1.000  1.000 1.000  L
20 0.00   0.00   0.00  \Gamma
25 2.00   0.000  0.00  X
30 2.00   2.00   2.00  \Gamma
%endblock BandLines


LongOutput .true.
WriteCoorXmol .true.
LatticeConstant 1 Ang
%block LatticeVectors
  66.592602 0.0 0.0
  0.0 57.999203 0.0
  0.0 0.0 57.979293
%endblock LatticeVectors


 

#UseSaveData .true.  
%block kgrid_Monkhorst_Pack
1 0 0 0.0 
 0 1 0 0.0 
 0 0 1 0.0 

%endblock kgrid_Monkhorst_Pack
WriteMDXmol .true.
AtomicCoordinatesFormat Ang
%block AtomicCoordinatesAndAtomicSpecies
40.653390  2.934870 35.595056  1 
41.745226  3.913404 35.852651  1 
41.701817  4.976669 36.672090  1 
40.476321  5.384746 37.460813  1 
42.878638  5.895920 36.831093  1 
44.265081  5.280931 37.072605  1 
45.342361  6.321842 37.435997  1 
45.282024  6.971858 38.850642  1 
46.389881  8.024255 38.953555  1 
43.916551  7.577960 39.226807  1 
43.853234  8.372027 40.545477  1 
42.419916  8.891226 40.732957  1 
42.165865  9.683218 42.029896  1 
42.998667  10.967731 42.076422  1 
40.662714  9.969285 42.308789  1 
39.884903  10.854567 41.311178  1 
39.655647  10.225523 39.936010  1 
39.032941  11.134616 38.866553  1 
39.833301  12.425601 38.671641  1 
38.988775  10.362858 37.539778  1 
41.077233  1.934293 35.474784  2 
40.130369  3.206732 34.674390  2 
39.934653  2.887510 36.412835  2 
42.667220  3.724580 35.294821  2 
39.545573  5.058235 36.989977  2 
40.406047  6.473769 37.550472  2 
40.522636  4.963628 38.473149  2 
42.610535  6.499416 37.681474  2 
42.919150  6.603776 35.993967  2 
44.590158  4.784139 36.148007  2 
44.228459  4.504739 37.845366  2 
45.367173  7.095850 36.659034  2 
46.313923  5.807591 37.365305  2 
45.506434  6.181446 39.578290  2 
46.178545  8.886432 38.315774  2 
47.359068  7.605210 38.654543  2 
46.499057  8.375828 39.983670  2 
43.227452  6.745160 39.401534  2 
43.553191  8.209375 38.416540  2 
44.536805  9.227466 40.492325  2 
44.152485  7.740846 41.388521  2 
41.708401  8.066515 40.655153  2 
42.292080  9.560977 39.884346  2 
42.502695  9.041960 42.859518  2 
42.390768  11.855093 42.275540  2 
43.539437  11.148847 41.142990  2 
43.741042  10.900173 42.879356  2 
40.609452  10.469787 43.285985  2 
40.128698  9.019562 42.440809  2 
40.386012  11.822247 41.224632  2 
38.898982  11.062452 41.749467  2 
39.070115  9.306638 40.049923  2 
40.593608  9.921207 39.496148  2 
38.006021  11.385407 39.157741  2 
39.524281  13.184980 39.397223  2 
39.680812  12.845691 37.670630  2 
40.910026  12.259748 38.796822  2 
40.005465  10.176851 37.157109  2 
38.447217  10.930687 36.782091  2 
38.495815  9.394827 37.658848  2 
22.782941  30.502951 41.307064  1 
22.032839  31.120907 42.434657  1 
20.700885  31.139562 42.606262  1 
19.714894  30.547923 41.622272  1 
20.069648  31.813054 43.790812  1 
20.633294  31.521627 45.189432  1 
19.768878  32.094213 46.330052  1 
18.407029  31.400701 46.633020  1 
17.693008  32.185401 47.737509  1 
17.487232  31.218694 45.410636  1 
16.068220  30.686475 45.687382  1 
15.318084  30.582004 44.351156  1 
13.883089  30.027824 44.437854  1 
12.975414  30.944483 45.263421  1 
13.251448  29.696567 43.055690  1 
13.020606  30.850970 42.056686  1 
14.296156  31.470576 41.483620  1 
14.113976  32.724848 40.616694  1 
13.339270  33.823665 41.349934  1 
15.503004  33.255956 40.234044  1 
23.711435  30.062852 41.680527  2 
23.031108  31.271395 40.570184  2 
22.220060  29.708308 40.817886  2 
22.660307  31.611477 43.184675  2 
20.102943  30.525131 40.600761  2 
18.791359  31.134906 41.583730  2 
19.453807  29.524486 41.920129  2 
19.046080  31.481582 43.749952  2 
20.014462  32.895773 43.623008  2 
21.625840  31.986536 45.267340  2 
20.781203  30.446867 45.344315  2 
19.623296  33.168534 46.162666  2 
20.371935  32.022181 47.249028  2 
18.634686  30.402720 47.028985  2 
17.357505  33.161358 47.377340  2 
18.356061  32.345911 48.597118  2 
16.821881  31.635514 48.105509  2 
17.930271  30.438630 44.782814  2 
17.411796  32.154941 44.858367  2 
15.534297  31.386454 46.340702  2 
16.113765  29.712787 46.185900  2 
15.901003  29.995531 43.637917  2 
15.272840  31.617167 44.017327  2 
13.950561  29.065549 44.969280  2 
12.059999  31.218759 44.731078  2 
13.472935  31.874917 45.552031  2 
12.671033  30.434459 46.184081  2 
12.268252  29.246886 43.254087  2 
13.836876  28.907612 42.566403  2 
12.388765  31.609771 42.525731  2 
12.438808  30.450976 41.214743  2 
14.859759  30.704338 40.940109  2 
14.947285  31.803133 42.278160  2 
13.579059  32.455631 39.698197  2 
12.260239  33.675368 41.238939  2 
13.577461  34.817055 40.952200  2 
13.568086  33.836598 42.422310  2 
16.039462  33.632901 41.119943  2 
15.418019  34.078098 39.522240  2 
16.117126  32.473676 39.781096  2 
10.997248  20.014647 10.035162  1 
9.687181  19.619799 9.448809  1 
8.870908  20.383767 8.704531  1 
9.146858  21.832935 8.366575  1 
7.563309  19.861259 8.182630  1 
7.542347  18.489888 7.491495  1 
6.197479  18.167138 6.810874  1 
5.837782  18.934787 5.503696  1 
4.433880  18.513983 5.059330  1 
5.941830  20.468552 5.604265  1 
5.442046  21.275594 4.390865  1 
5.627182  22.770581 4.690627  1 
5.209043  23.730301 3.560167  1 
3.710084  23.629095 3.262548  1 
5.644572  25.205154 3.792983  1 
5.057570  25.963255 5.003212  1 
5.529636  25.459980 6.368207  1 
4.844324  26.077309 7.595889  1 
3.320739  25.934339 7.537091  1 
5.369774  25.368211 8.852463  1 
11.688004  19.168168 9.995264  2 
10.856476  20.302938 11.080225  2 
11.462867  20.840062 9.497131  2 
9.379167  18.593853 9.671217  2 
9.777265  22.325457 9.111288  2 
8.219738  22.413725 8.320956  2 
9.639908  21.904237 7.388758  2 
7.258210  20.614029 7.475887  2 
6.801128  19.899637 8.970723  2 
7.717571  17.715692 8.251282  2 
8.354916  18.398001 6.761931  2 
5.391407  18.266694 7.548243  2 
6.224232  17.096785 6.552010  2 
6.543594  18.603890 4.731090  2 
3.670745  18.893308 5.743811  2 
4.345727  17.420877 5.018361  2 
4.213949  18.889099 4.055548  2 
7.006341  20.720417 5.652477  2 
5.426636  20.819181 6.498068  2 
4.376359  21.074884 4.229936  2 
5.989321  20.988650 3.487086  2 
6.659762  22.969697 4.984883  2 
4.970418  22.929520 5.544120  2 
5.747155  23.403233 2.656619  2 
3.210774  24.602089 3.286536  2 
3.186791  22.979410 3.970081  2 
3.557667  23.214487 2.259923  2 
5.355275  25.768554 2.894574  2 
6.740091  25.260966 3.829047  2 
3.966543  25.956776 4.935223  2 
5.360038  27.015907 4.914954  2 
6.617574  25.567658 6.438698  2 
5.333641  24.403276 6.472227  2 
5.106303  27.140051 7.660665  2 
2.877544  26.755137 6.963953  2 
2.876220  25.955064 8.538952  2 
3.018313  24.992463 7.063888  2 
5.042059  24.316250 8.878422  2 
4.995704  25.855174 9.753986  2 
6.462015  25.377381 8.887051  2 
38.680683  14.233179 4.907044  1 
37.905821  13.601211 4.892395  1 
38.065535  12.614070 4.898227  1 
39.000107  12.258887 4.918707  1 
39.159818  11.271736 4.924539  1 
40.094390  10.916553 4.945020  1 
40.254104  9.929411 4.950851  1 
41.188677  9.574228 4.971332  1 
41.348387  8.587077 4.977164  1 
42.282960  8.231894 4.997644  1 
42.442674  7.244753 5.003476  1 
43.377246  6.889569 5.023956  1 
43.536957  5.902418 5.029788  1 
44.471529  5.547235 5.050268  1 
44.631243  4.560094 5.056100  1 
45.565815  4.204910 5.076580  1 
45.725526  3.217760 5.082412  1 
46.660098  2.862576 5.102892  1 
46.819812  1.875435 5.108724  1 
47.754384  1.520252 5.129204  1 
47.914095  0.533101 5.135036  1 
48.848667  0.177918 5.155516  1 
0.403650  43.527012 0.056997  1 
0.021430  44.449329 0.000097  1 
0.624277  45.244948 0.059739  1 
1.609352  45.118253 0.176282  1 
2.212208  45.913876 0.235925  1 
3.197275  45.787177 0.352467  1 
3.800130  46.582800 0.412110  1 
4.785197  46.456101 0.528652  1 
5.388052  47.251724 0.588295  1 
6.373119  47.125025 0.704837  1 
6.975975  47.920648 0.764479  1 
7.961041  47.793949 0.881021  1 
8.563897  48.589572 0.940664  1 
9.548963  48.462873 1.057206  1 
10.151819  49.258496 1.116849  1 
11.136885  49.131797 1.233391  1 
11.739741  49.927420 1.293034  1 
37.191607  1.218799 7.496452  1 
36.928356  0.750018 6.653277  1 
37.596477  0.628560 5.919211  1 
38.527858  0.975883 6.028316  1 
39.195988  0.854425 5.294247  1 
40.127360  1.201747 5.403355  1 
40.795490  1.080289 4.669286  1 
41.726862  1.427611 4.778394  1 
42.394992  1.306154 4.044325  1 
43.326364  1.653475 4.153434  1 
43.994494  1.532018 3.419364  1 
44.925866  1.879340 3.528473  1 
45.593996  1.757882 2.794403  1 
46.525368  2.105204 2.903512  1 
47.193498  1.983747 2.169442  1 
48.124870  2.331068 2.278551  1 
48.793000  2.209611 1.544481  1 
16.446039  27.946109 32.738163  1 
15.011687  28.013736 33.184689  1 
14.345789  29.241290 33.139797  1 
13.025740  29.293324 33.542304  1 
12.328737  28.224175 33.975017  3 
12.956998  27.037193 34.016986  1 
12.236550  25.928282 34.440843  1 
12.808120  24.655606 34.503945  1 
14.138125  24.482280 34.150525  1 
14.886167  25.579921 33.726364  1 
14.309769  26.869530 33.640207  1 
16.801135  28.917092 32.376272  2 
16.554564  27.233526 31.914116  2 
17.091013  27.647346 33.570693  2 
14.839122  30.143413 32.793969  2 
12.471582  30.227360 33.521989  2 
11.194593  26.059147 34.723449  2 
12.210214  23.808056 34.828196  2 
14.593845  23.496810 34.199096  2 
15.926406  25.417663 33.456850  2 
49.205961  7.568232 49.220776  1 
49.421787  7.049815 47.834814  1 
49.597859  7.954051 46.833909  3 
49.795687  7.524588 45.568613  1 
49.837154  6.195259 45.182323  1 
49.658508  5.242722 46.195175  1 
49.631285  3.811404 46.222749  1 
49.773939  2.807335 45.242646  1 
49.692040  1.461433 45.618779  1 
49.471752  1.107945 46.947868  1 
49.327452  2.083764 47.938058  1 
49.411919  3.424173 47.543489  1 
49.309581  4.574376 48.288395  3 
49.148984  4.594434 49.284525  2 
49.454813  5.691862 47.498821  1 
49.220418  8.662352 49.237139  2 
49.994989  7.203690 49.885620  2 
48.236976  7.231185 49.601539  2 
49.926879  8.315393 44.834831  2 
49.999686  5.913846 44.149686  2 
49.945963  3.072526 44.203818  2 
49.801697  0.685871 44.864709  2 
49.411170  0.056719 47.220687  2 
49.155549  1.804172 48.972295  2 
1.730186  9.396186 44.161431  1 
2.216559  8.316607 45.080171  1 
1.511180  7.132075 45.222816  1 
2.065313  6.091043 45.974543  1 
1.390928  4.861511 46.073552  1 
1.974311  3.768169 46.733347  1 
1.372952  2.507798 46.793337  1 
1.926352  1.420801 47.381307  3 
3.133676  1.596104 47.951162  1 
3.807764  2.805755 47.975797  1 
3.225272  3.916807 47.350673  1 
3.872651  5.166132 47.298207  1 
3.318945  6.269092 46.597144  1 
3.934042  7.533804 46.446592  1 
5.276564  7.876112 47.023291  1 
3.399595  8.530119 45.691166  3 
0.730091  9.180932 43.772547  2 
2.414433  9.481407 43.310479  2 
1.696152  10.354963 44.686516  2 
0.559300  7.004449 44.716319  2 
0.421557  4.738652 45.598505  2 
0.403456  2.325065 46.338033  2 
3.567716  0.707196 48.401031  2 
4.779085  2.871281 48.455732  2 
4.836523  5.261020 47.787322  2 
5.589745  7.215548 47.833604  2 
5.251305  8.890254 47.437798  2 
6.033438  7.844813 46.232620  2 
1.201781  43.100167 47.443722  1 
2.062434  41.909445 47.740076  1 
1.516290  40.643282 47.892901  1 
2.345233  39.531575 48.172369  1 
1.868355  38.197135 48.343255  1 
0.519288  37.900102 48.242354  4 
2.708084  37.100382 48.620721  1 
2.197891  35.854946 48.771829  3 
3.031061  34.831214 49.035949  1 
4.395188  34.971879 49.165172  1 
4.945940  36.244194 49.014401  1 
6.436783  36.406280 49.154135  1 
4.088641  37.341409 48.734938  1 
4.567768  38.659231 48.567706  1 
3.731334  39.764176 48.287703  1 
4.201598  41.089294 48.115767  1 
5.647653  41.491913 48.207704  1 
3.382825  42.137805 47.848266  3 
0.144211  42.830119 47.367189  2 
1.508132  43.552143 46.495212  2 
1.308064  43.842172 48.241168  2 
0.442230  40.544258 47.790115  2 
-0.003058  38.686974 48.054296  2 
2.552185  33.862535 49.143944  2 
5.009864  34.104486 49.378707  2 
6.929152  35.452132 49.368647  2 
6.669421  37.087271 49.979390  2 
6.865816  36.794008 48.224336  2 
5.636146  38.819023 48.661206  2 
6.338711  40.674451 48.411743  2 
5.769201  42.229130 49.008210  2 
5.957525  41.950207 47.262637  2 
26.456976  0.677019 10.567184  1 
27.321523  1.938087 10.737451  1 
28.710111  1.521640 11.233330  1 
27.400899  2.713102 9.406428  1 
26.143969  3.185918 8.812552  3 
25.187838  4.070302 9.196913  1 
24.408571  4.465066 8.323740  4 
25.136590  4.648644 10.624654  1 
23.673331  4.710480 11.143278  1 
23.074609  3.300720 11.241507  1 
23.553896  5.387061 12.517669  1 
25.725929  5.982786 10.521875  3 
27.046174  6.328434 10.590449  1 
27.387147  7.413673 10.127018  4 
28.079899  5.327819 11.160251  1 
29.081975  6.079979 12.081221  1 
28.378369  6.694814 13.295905  1 
30.213426  5.169303 12.575292  1 
28.783350  4.789265 9.996270  3 
28.510040  3.758532 9.162442  1 
29.145891  3.728174 8.101396  4 
26.381596  0.125506 11.510513  2 
26.885455  -0.000753 9.819714  2 
25.440171  0.930875 10.251056  2 
26.865636  2.524897 11.531644  2 
29.248839  0.942964 10.475919  2 
28.630881  0.906034 12.136127  2 
29.315512  2.394947 11.490172  2 
27.695310  1.927159 8.689492  2 
26.078922  3.025170 7.811140  2 
25.712315  4.047450 11.312405  2 
23.058795  5.288613 10.441050  2 
23.606547  2.693526 11.982239  2 
23.115882  2.778919 10.281051  2 
22.021433  3.349255 11.539370  2 
24.246973  4.953375 13.246603  2 
22.538967  5.272434 12.918457  2 
23.752232  6.461454 12.451659  2 
25.194238  6.663559 9.985595  2 
27.611055  4.524265 11.719603  2 
29.548615  6.899285 11.517134  2 
27.922963  5.921688 13.923334  2 
27.595613  7.397805 12.995993  2 
29.093762  7.251682 13.911649  2 
29.819338  4.291608 13.097702  2 
30.866662  5.707801 13.271746  2 
30.840215  4.824686 11.746717  2 
29.423522  5.438642 9.547372  2 
22.686833  6.310842 31.285009  1 
21.645429  5.576537 30.423036  1 
21.293084  6.455481 29.218539  1 
22.190524  4.201943 29.984932  1 
22.563257  3.245937 31.035284  3 
21.878041  2.592691 32.008836  1 
22.438373  1.624777 32.532951  4 
20.426209  2.960266 32.373012  1 
20.221032  2.939919 33.912949  1 
21.102625  3.998331 34.589778  1 
18.761427  3.185963 34.325252  1 
19.595869  1.957155 31.708089  3 
19.119801  1.971851 30.427322  1 
18.760933  0.908074 29.928959  4 
19.124136  3.288752 29.614767  1 
17.789960  3.420612 28.826938  1 
16.585518  3.512575 29.770019  1 
17.782344  4.640581 27.896757  1 
20.242678  3.166132 28.680122  3 
21.562778  3.441847 28.797145  1 
22.301735  2.965336 27.926556  4 
22.304946  7.283234 31.614153  2 
23.611751  6.489874 30.724515  2 
22.939657  5.735018 32.180988  2 
20.744296  5.491490 31.026067  2 
22.147459  6.571125 28.543680  2 
20.982405  7.454091 29.544951  2 
20.463153  6.029365 28.648642  2 
23.179392  4.459091 29.567322  2 
23.448055  2.775776 30.865056  2 
20.168395  3.944727 32.012093  2 
20.510384  1.957935 34.309180  2 
20.814436  5.010264 34.284384  2 
22.159340  3.857166 34.345072  2 
21.010934  3.936456 35.679743  2 
18.350490  4.084202 33.851880  2 
18.683572  3.320232 35.411421  2 
18.124046  2.336127 34.061552  2 
19.680589  1.006578 32.058760  2 
19.256975  4.162119 30.245619  2 
17.651515  2.531627 28.196265  2 
16.644842  4.404195 30.402696  2 
16.513713  2.635424 30.419866  2 
15.653230  3.566619 29.196480  2 
17.977151  5.564942 28.450086  2 
16.808697  4.744615 27.403873  2 
18.534682  4.546331 27.107285  2 
20.091015  2.511171 27.917860  2 
14.512132  4.764243 35.369808  1 
13.419505  4.794487 34.287229  1 
13.392436  6.188349 33.651682  1 
13.679278  3.694887 33.237483  1 
13.723508  2.302078 33.700348  3 
12.818029  1.461339 34.263661  1 
13.092006  0.257032 34.253299  4 
11.458766  1.959997 34.792147  1 
11.107242  1.277333 36.142821  1 
12.136019  1.648030 37.219733  1 
9.708345  1.652099 36.656257  1 
10.491028  1.618298 33.750733  3 
10.155990  2.342327 32.641339  1 
9.615553  1.756310 31.706842  4 
10.535997  3.839577 32.550075  1 
9.348244  4.644126 31.950051  1 
8.110837  4.578738 32.851765  1 
9.706061  6.116458 31.709585  1 
11.682395  3.895962 31.643253  3 
13.013124  3.753411 31.846274  1 
13.705411  3.571676 30.836939  4 
14.330120  5.532261 36.129241  2 
15.503062  4.950855 34.939792  2 
14.540910  3.796044 35.879743  2 
12.468788  4.662282 34.798678  2 
14.311649  6.391403 33.092591  2 
13.285640  6.962536 34.419482  2 
12.546392  6.293455 32.967352  2 
14.736121  3.865951 32.968778  2 
14.491277  1.764664 33.307139  2 
11.466090  3.028578 34.946981  2 
11.127654  0.186739 36.019512  2 
12.114771  2.721620 37.437169  2 
13.151968  1.383175 36.912887  2 
11.928372  1.111348 38.151996  2 
9.558557  2.736997 36.674796  2 
9.558814  1.280727 37.677812  2 
8.923733  1.207234 36.036182  2 
10.324558  0.625645 33.606955  2 
10.801552  4.257258 33.516208  2 
9.073707  4.214441 30.976804  2 
8.309080  5.029083 33.829863  2 
7.780476  3.547843 33.009774  2 
7.274466  5.119212 32.394161  2 
10.050665  6.598405 32.630206  2 
8.833146  6.672115 31.347631  2 
10.489934  6.219088 30.952503  2 
11.460597  3.729819 30.665387  2 
12.378583  11.163686 16.056748  1 
13.134599  12.007482 16.770367  1 
12.751944  12.475214 18.168155  1 
12.049460  11.626899 19.226784  1 
10.689571  11.251120 18.914301  1 
9.887082  12.465567 18.600722  1 
8.484843  11.920730 18.103006  1 
8.657923  10.749433 16.712466  1 
9.133574  9.285715 16.842432  1 
8.693162  8.288097 17.959177  1 
8.758856  8.611668 19.484812  1 
7.677266  9.482188 20.201749  1 
7.522853  10.903774 19.793156  1 
6.803093  11.138398 18.015220  1 
7.132964  12.482036 16.731028  1 
7.243618  12.532765 15.166728  1 
7.710881  13.903009 14.628871  1 
14.200192  12.623911 16.090402  4 
15.306789  13.194967 16.818467  1 
16.478343  12.168024 16.971691  1 
17.368496  11.752924 15.791502  1 
15.811965  14.534396 16.210737  1 
14.972456  15.740870 16.259464  4 
14.712893  16.385899 17.446867  1 
14.802762  15.847685 18.540551  4 
14.201218  17.833870 17.221487  1 
14.911325  19.116190 17.775065  1 
15.000127  19.415072 19.292032  1 
15.731506  20.747157 19.631077  1 
15.865605  21.094940 21.137714  1 
16.658543  20.161153 22.060202  1 
16.252615  18.665143 22.241807  1 
15.031532  17.865283 22.754623  1 
13.700875  17.602122 22.622762  1 
12.427148  18.113223 21.929673  1 
11.613090  17.223446 20.906753  1 
10.257709  17.888505 20.458214  1 
9.410438  17.041845 19.489276  1 
8.133649  17.746257 18.974338  1 
7.284577  16.964836 17.954474  1 
7.956814  16.745515 16.599813  1 
9.210284  15.890619 16.586504  1 
11.481881  10.734034 16.447906  2 
12.567500  10.913052 15.021558  2 
12.159686  13.384179 18.015340  2 
13.629618  12.745426 18.728692  2 
11.932136  12.239126 20.131259  2 
12.589263  10.719624 19.486923  2 
10.308557  10.678675 19.752319  2 
10.662702  10.544017 18.109201  2 
10.218030  13.033129 17.727641  2 
9.686917  13.133622 19.457350  2 
8.134324  13.074029 18.309123  2 
7.565086  12.365695 18.792280  2 
9.186095  11.213237 15.886380  2 
7.625161  10.458176 16.198016  2 
10.196526  9.375343 16.844310  2 
8.942040  8.794457 15.852137  2 
9.402915  7.457798 17.817751  2 
7.703891  7.860979 17.745328  2 
9.789174  8.889455 19.717543  2 
8.656941  7.656271 20.016902  2 
7.928289  9.553156 21.278253  2 
6.686795  9.128830 20.020044  2 
8.556468  11.227505 20.027708  2 
7.070983  11.645972 20.455847  2 
5.787397  10.686975 17.881662  2 
7.387673  10.100990 17.933195  2 
8.287372  12.861342 16.643622  2 
6.830671  13.469450 17.109580  2 
6.258769  12.258559 14.887145  2 
7.995900  11.905609 14.660919  2 
6.954719  14.648373 14.845025  2 
7.889684  13.840495 13.553778  2 
8.682892  14.215729 15.014547  2 
15.002349  13.443578 17.826222  2 
16.081706  11.245995 17.412099  2 
17.166644  12.598398 17.709624  2 
16.828594  11.394252 14.911808  2 
18.013109  10.921684 16.120973  2 
18.049645  12.556036 15.488005  2 
16.030319  14.378523 15.148215  2 
16.754799  14.800557 16.700216  2 
13.142142  17.848486 17.501988  2 
14.210028  17.972411 16.129540  2 
14.355019  19.962068 17.344885  2 
15.921322  19.169879 17.355533  2 
15.539126  18.594074 19.745733  2 
14.001088  19.461837 19.733806  2 
15.181600  21.581314 19.165240  2 
16.726107  20.769077 19.165000  2 
14.881138  21.262856 21.578789  2 
16.373790  22.078218 21.180234  2 
16.783573  20.650981 23.040949  2 
17.696344  20.153659 21.671236  2 
17.058029  18.322987 22.925124  2 
16.543411  18.163801 21.319804  2 
15.466017  17.125109 23.450679  2 
13.399070  16.762024 23.266856  2 
12.604546  19.096019 21.496039  2 
11.720558  18.265999 22.761351  2 
11.379653  16.238903 21.336189  2 
12.228754  17.041814 20.017353  2 
10.492318  18.833725 19.952509  2 
9.629738  18.113759 21.322848  2 
9.133909  16.072356 19.917212  2 
10.094714  16.849504 18.684041  2 
8.382537  18.718670 18.531737  2 
7.491257  17.947099 19.839519  2 
6.361239  17.539202 17.759451  2 
6.940515  16.014131 18.379901  2 
8.184654  17.709347 16.137855  2 
7.214910  16.278460 15.946429  2 
10.075143  16.299633 17.080060  2 
9.590607  15.817754 15.567041  2 
9.022298  14.904059 17.014661  2 
25.959325  6.896096 26.328801  1 
25.692362  6.370870 25.126439  1 
25.945089  4.906723 24.792657  1 
25.764879  3.733213 25.754019  1 
26.684531  3.700918 26.868177  1 
28.086686  3.758121 26.370289  1 
28.983897  3.899731 27.668673  1 
28.487131  5.327196 28.693886  1 
27.238783  5.372462 29.602282  1 
26.753667  4.214705 30.529961  1 
26.542618  2.746284 30.044399  1 
27.730638  1.748107 29.860302  1 
28.766147  2.055466 28.838076  1 
29.869791  3.581938 29.269370  1 
30.679584  4.861596 28.142411  1 
30.977539  6.399717 28.227618  1 
31.525479  6.992335 26.910895  1 
25.367923  7.278957 24.102748  4 
24.665258  6.838442 22.922516  1 
23.118639  7.024014 23.077956  1 
22.449130  8.405594 23.055157  1 
25.181544  7.509295 21.617904  1 
26.525800  7.207221 21.103651  4 
26.832319  5.971782 20.581065  1 
26.202346  4.956070 20.836715  4 
28.121476  6.010058 19.717447  1 
28.180316  5.612940 18.202891  1 
27.938854  4.159624 17.725423  1 
28.058521  3.973557 16.184197  1 
27.812166  2.540127 15.642462  1 
26.441391  1.882599 15.843269  1 
25.853617  1.654134 17.270900  1 
26.231877  0.874096 18.552407  1 
27.152677  0.670914 19.536344  1 
28.603868  0.998396 19.924646  1 
28.960010  1.809250 21.234775  1 
30.508631  1.874382 21.514199  1 
30.903464  2.623139 22.801449  1 
32.428315  2.771155 23.012320  1 
32.873836  3.566457 24.253557  1 
32.527920  5.054413 24.215621  1 
31.054369  5.415990 24.204547  1 
26.324952  6.303862 27.139514  2 
25.901554  7.953089 26.551407  2 
26.969381  4.872546 24.405362  2 
25.286024  4.579858 24.007597  2 
26.005227  2.808570 25.211865  2 
24.758297  3.650241 26.156653  2 
26.461924  2.813277 27.449278  2 
26.479788  4.495953 27.557308  2 
28.353677  4.667036 25.825758  2 
28.435101  2.856690 25.835309  2 
29.878401  3.572127 26.901871  2 
29.805392  2.983965 27.743265  2 
28.528894  6.244527 28.116600  2 
29.245120  5.570669 29.578341  2 
26.457034  5.638814 28.927132  2 
27.329929  6.297142 30.231061  2 
25.749595  4.560528 30.822182  2 
27.330754  4.183395 31.464202  2 
25.842757  2.774871 29.206388  2 
25.949412  2.238423 30.816717  2 
27.330358  0.769512 29.530093  2 
28.343996  1.682933 30.731196  2 
28.089845  2.081582 27.960518  2 
29.398756  1.274712 28.408619  2 
30.435302  3.467120 30.228678  2 
28.830628  3.845429 29.794145  2 
30.013867  5.227764 27.190090  2 
31.401237  4.385280 27.462698  2 
31.654475  6.427883 29.042632  2 
30.140326  7.101629 28.374205  2 
32.499856  6.565333 26.705161  2 
31.593433  8.078945 26.990672  2 
30.856764  6.857073 26.058914  2 
24.818635  5.778553 22.770286  2 
22.796546  6.528423 24.001029  2 
22.660273  6.471996 22.248075  2 
22.864830  9.130034 23.759701  2 
21.388597  8.279796 23.328069  2 
22.448392  8.845496 22.051390  2 
25.161682  8.597005 21.749887  2 
24.485207  7.267856 20.807848  2 
28.896291  5.468302 20.271250  2 
28.442704  7.062784 19.731584  2 
29.202974  5.858091 17.880227  2 
27.515031  6.274211 17.638001  2 
26.938797  3.886488 18.034755  2 
28.648558  3.476258 18.199513  2 
29.077489  4.255193 15.871780  2 
27.397514  4.676952 15.659558  2 
28.580632  1.857057 16.009606  2 
27.972525  2.595446 14.547874  2 
26.403713  0.950226 15.254465  2 
25.712007  2.523497 15.308824  2 
24.869352  1.210896 17.011191  2 
25.545376  2.636223 17.626543  2 
25.305396  0.337371 18.825699  2 
26.757340  -0.000076 20.314282  2 
29.131381  1.429450 19.075341  2 
29.057053  0.009292 20.099552  2 
28.476363  1.368014 22.117741  2 
28.574526  2.831909 21.141861  2 
30.985958  2.390946 20.671856  2 
30.934601  0.871039 21.581510  2 
30.462634  2.171850 23.696721  2 
30.438892  3.582337 22.668238  2 
32.895832  3.229463 22.132087  2 
32.851354  1.764428 23.107634  2 
33.973816  3.499909 24.331638  2 
32.497364  3.099726 25.172055  2 
33.011371  5.526347 23.356643  2 
32.987891  5.512293 25.095533  2 
30.500789  5.145886 23.321674  2 
30.945754  6.500609 24.171934  2 
30.534223  4.987655 25.063579  2 
6.605193  10.412685 2.632532  1 
7.834927  9.948625 2.887895  1 
8.557629  10.210568 4.202465  1 
7.898741  10.281000 5.578956  1 
7.003442  11.397581 5.778545  1 
7.706875  12.673173 5.469920  1 
6.589176  13.793787 5.546188  1 
5.173913  13.427207 4.451590  1 
4.080405  12.375569 4.741248  1 
3.396971  12.139894 6.124615  1 
4.185176  11.918469 7.453629  1 
4.812274  13.100782 8.260180  1 
5.890624  13.903168 7.623757  1 
5.294394  14.985824 6.138319  1 
6.194041  15.494958 4.558844  1 
5.785491  15.721071 3.060907  1 
6.990002  15.973933 2.127949  1 
8.531269  9.385879 1.803344  4 
9.643605  8.494549 2.024654  1 
9.181920  6.998753 2.033031  1 
8.747440  6.264418 0.756511  1 
10.811815  8.714531 1.021906  1 
11.609329  9.949450 1.062844  4 
12.465051  10.215686 2.106980  1 
12.362398  9.701621 3.211106  4 
13.502345  11.311436 1.742865  1 
15.054634  11.099960 1.769790  1 
15.826133  10.849475 3.089052  1 
17.362396  10.681215 2.899575  1 
18.189437  10.412551 4.185154  1 
17.922607  9.142844 5.002674  1 
16.515740  8.852742 5.612895  1 
15.551320  9.510815 6.628095  1 
14.822492  10.612691 6.962712  1 
14.622767  12.091788 6.593442  1 
13.235348  12.648636 6.077934  1 
13.220939  14.216364 5.927701  1 
11.877331  14.810061 5.463174  1 
11.903763  16.336921 5.219154  1 
10.601343  16.968983 4.693926  1 
10.211115  16.543179 3.279174  1 
9.877512  15.077657 3.071399  1 
6.041276  10.958081 3.357942  2 
6.122551  10.342248 1.667017  2 
9.112695  11.141944 4.045049  2 
9.272681  9.431651 4.401249  2 
8.685109  10.462024 6.324285  2 
7.360969  9.376182 5.851561  2 
6.629414  11.338281 6.794284  2 
6.115004  11.286555 5.189261  2 
8.048473  12.781843 4.437725  2 
8.499394  12.960238 6.183840  2 
7.555950  14.540898 5.597369  2 
6.885836  14.662098 6.369034  2 
5.505682  13.308425 3.425764  2 
4.401744  14.326581 4.346867  2 
4.523284  11.465785 4.403530  2 
3.268808  12.536011 3.983441  2 
2.859301  11.193449 5.956392  2 
2.613694  12.886219 6.315124  2 
4.856104  11.070422 7.300150  2 
3.471097  11.512343 8.182631  2 
5.298918  12.697513 9.169829  2 
4.104025  13.872317 8.465192  2 
6.603951  13.070758 7.461177  2 
6.601989  14.482521 8.217487  2 
4.505779  15.730073 6.416595  2 
4.549167  14.053974 6.107202  2 
6.896731  14.640411 4.048795  2 
7.084475  16.097322 4.791125  2 
5.118545  16.539209 3.156377  2 
5.327871  14.891190 2.497899  2 
7.460052  16.912199 2.397723  2 
6.658030  15.997740 1.088270  2 
7.720003  15.162489 2.126728  2 
10.076401  8.672327 2.999920  2 
8.367992  6.886563 2.758534  2 
10.029920  6.419962 2.419584  2 
7.969103  6.768150 0.178196  2 
8.334581  5.284148 1.045743  2 
9.596146  6.047742 0.097867  2 
10.414587  8.662228 0.001905  2 
11.523209  7.889730 1.135879  2 
13.241820  12.205882 2.319606  2 
13.285162  11.572677 0.695868  2 
15.478979  12.027195 1.357228  2 
15.315253  10.304340 1.064063  2 
15.425307  9.943329 3.523380  2 
15.665233  11.672399 3.790718  2 
17.767345  11.604848 2.454447  2 
17.574998  9.895253 2.162009  2 
18.140620  11.272542 4.855937  2 
19.247371  10.356893 3.861774  2 
18.707235  9.042875 5.771956  2 
18.148116  8.291333 4.330025  2 
16.702185  7.862070 6.078184  2 
15.881324  8.566355 4.775343  2 
15.262526  8.683954 7.301912  2 
14.177491  10.410273 7.831450  2 
15.417807  12.422881 5.927345  2 
14.778072  12.622310 7.546712  2 
12.418310  12.367529 6.757390  2 
13.005310  12.198386 5.104578  2 
13.979589  14.495038 5.185400  2 
13.477642  14.700348 6.872445  2 
11.058447  14.573811 6.151011  2 
11.687662  14.277973 4.549643  2 
12.711196  16.601831 4.525395  2 
12.134089  16.823582 6.173960  2 
10.733703  18.065483 4.668436  2 
9.775256  16.801082 5.395778  2 
10.997681  16.827051 2.575599  2 
9.338872  17.138165 2.995176  2 
10.690120  14.380329 3.182189  2 
9.622640  14.906988 2.024895  2 
9.073802  14.755504 3.736400  2 
6.250235  27.188847 39.791364  1 
7.042985  26.690225 40.141978  1 
7.967111  26.991166 39.906551  1 
8.098486  27.790730 39.320508  1 
9.022612  28.091672 39.085080  1 
9.153991  28.891229 38.499043  1 
10.078116  29.192170 38.263615  1 
10.209491  29.991734 37.677573  1 
11.133617  30.292676 37.442145  1 
11.264996  31.092233 36.856108  1 
12.189121  31.393174 36.620680  1 
12.320497  32.192738 36.034638  1 
13.244622  32.493680 35.799210  1 
13.375997  33.293244 35.213167  1 
14.300123  33.594185 34.977739  1 
14.431502  34.393742 34.391702  1 
15.355627  34.694684 34.156275  1 
15.487003  35.494248 33.570232  1 
16.411128  35.795189 33.334804  1 
16.542507  36.594746 32.748767  1 
17.466633  36.895687 32.513339  1 
17.598008  37.695252 31.927297  1 
18.522133  37.996193 31.691869  1 