NumberOfAtoms 2035
SpinPolarized yes
#FixSpin .true.
#TotalSpin
NumberOfSpecies 4


MD.TypeOfRun  nose
MD.FinalTimeStep 50
MD.LengthTimeStep 0.5  fs
MD.InitialTemperature 300 K
MD.TargetTemperature  300  K


%block ChemicalSpeciesLabel
1 6 C
2 8 O
3 7 N
4 1 H
%endblock ChemicalSpeciesLabel
PAO.BasisSize dzp 
 PAO.EnergyShift 0.02 Ry 
MeshCutoff          100 Ry
MaxSCFIterations    100
DM.NumberPulay       3
DM.Tolerance         1e-3
WriteDenchar	.true.
%block ProjectedDensityOfStates
-10.0 10.0 0.200 500 eV
%endblock ProjectedDensityOfStates
NetCharge 0.00

%block BandLines
1  1.000  1.000 1.000  L
20 0.00   0.00   0.00  \Gamma
25 2.00   0.000  0.00  X
30 2.00   2.00   2.00  \Gamma
%endblock BandLines


LongOutput .true.
WriteCoorXmol .true.
LatticeConstant 1 Ang
%block LatticeVectors
  30 0.0 0.0
  0.0 30 0.0
0.0 0.0 30
%endblock LatticeVectors




#UseSaveData .true.
%block kgrid_Monkhorst_Pack
1 0 0 0.0 
 0 1 0 0.0 
 0 0 1 0.0

%endblock kgrid_Monkhorst_Pack
WriteMDXmol .true.
AtomicCoordinatesFormat Ang
%block AtomicCoordinatesAndAtomicSpecies
4.424195  21.809519 1.247316  1
5.276774  21.587753 2.447282  1
4.861146  21.348936 3.701921  1
3.405832  21.306345 4.115076  1
5.833945  21.154297 4.829301  1
7.013273  20.191821 4.625362  1
7.806520  19.912182 5.917123  1
7.141232  19.014257 7.002712  1
8.070354  18.945912 8.218253  1
5.724031  19.448651 7.422497  1
5.091270  18.690471 8.604958  1
3.693857  19.272535 8.864871  1
2.896917  18.602035 10.000282  1
3.591982  18.776327 11.353871  1
1.405651  19.038938 10.066022  1
1.085288  20.519004 10.367212  1
1.470330  21.499197 9.258020  1
1.320028  22.991814 9.585824  1
2.085947  23.382678 10.853026  1
1.857776  23.805450 8.399772  1
4.892261  21.348507 0.373447  4
4.323449  22.882758 1.065407  4
3.432179  21.371240 1.354108  4
6.352977  21.637924 2.257093  4
2.766982  21.911229 3.466559  4
3.268851  21.698405 5.128227  4
3.040188  20.271755 4.099715  4
5.216394  20.786211 5.630786  4
6.196091  22.126442 5.186049  4
7.709989  20.644210 3.906134  4
6.683712  19.244408 4.184031  4
8.127172  20.866582 6.352645  4
8.735596  19.404706 5.612708  4
7.068092  18.002560 6.583543  4
8.115592  19.906675 8.737544  4
9.089223  18.668890 7.919094  4
7.729022  18.186273 8.927550  4
5.052546  19.219247 6.588575  4
5.710557  20.516302 7.639724  4
5.706361  18.829374 9.501752  4
5.032839  17.619136 8.387033  4
3.106901  19.265942 7.944059  4
3.909081  20.300937 9.149686  4
2.878550  17.523988 9.775744  4
2.927575  19.193391 12.116251  4
4.466067  19.431176 11.293210  4
3.934339  17.803447 11.723580  4
0.933874  18.443806 10.860688  4
0.896698  18.740706 9.140494  4
1.544817  20.798603 11.318875  4
0.000158  20.600138 10.519726  4
0.921098  21.247603 8.344117  4
2.515711  21.398002 9.007428  4
0.257493  23.228513 9.717139  4
1.478065  23.197236 11.744490  4
2.350442  24.446534 10.850648  4
3.017553  22.813685 10.957287  4
2.946982  23.675299 8.293081  4
1.662589  24.869072 8.542657  4
1.392120  23.495495 7.460964  4
17.701663  38.694136 38.699173  1
18.926468  39.524828 38.538567  1
20.073224  39.167380 37.937668  1
20.323177  37.798371 37.342866  1
21.243717  40.104614 37.855524  1
20.999374  41.547602 37.389857  1
22.298253  42.338681 37.138480  1
23.141560  41.976916 35.879376  1
24.415567  42.826841 35.882626  1
23.483236  40.481477 35.736917  1
24.448625  40.099116 34.598820  1
24.660807  38.578231 34.630547  1
25.578372  38.013599 33.529135  1
27.005309  38.555879 33.653546  1
25.565958  36.461235 33.433783  1
26.081087  35.645986 34.639583  1
25.200234  35.717342 35.887921  1
25.760850  35.056634 37.155646  1
27.147252  35.595251 37.520327  1
24.791758  35.331006 38.314729  1
16.814058  39.323989 38.595706  4
17.696206  38.241912 39.694435  4
17.630884  37.906623 37.949239  4
18.857858  40.526457 38.973232  4
19.725891  37.017345 37.820187  4
21.369139  37.497760 37.463475  4
20.094541  37.806702 36.269570  4
21.903790  39.618624 37.157418  4
21.795940  40.101154 38.803428  4
20.442336  42.076214 38.175756  4
20.371775  41.576517 36.491938  4
22.920446  42.299242 38.041086  4
22.007640  43.395798 37.031573  4
22.550745  42.267797 35.001362  4
25.092992  42.523209 36.684923  4
24.178527  43.889876 36.017162  4
24.946537  42.736942 34.930445  4
22.558620  39.960211 35.468011  4
23.876880  40.097912 36.677752  4
25.413702  40.595716 34.753367  4
24.046371  40.416383 33.631247  4
23.697613  38.064054 34.612242  4
25.137212  38.420341 35.596549  4
25.172559  38.371050 32.569717  4
27.756219  37.760695 33.674002  4
27.146272  39.157248 34.556329  4
27.236472  39.193902 32.793384  4
26.195418  36.189613 32.574567  4
24.556316  36.119591 33.172096  4
27.108150  35.946511 34.862814  4
26.134263  34.592813 34.330796  4
24.205852  35.321561 35.653964  4
25.043477  36.743722 36.184283  4
25.822076  33.972673 37.002254  4
27.927648  35.052880 36.976789  4
27.353226  35.482600 38.591137  4
27.246947  36.660019 37.277746  4
24.775547  36.402905 38.570583  4
25.093406  34.780881 39.207016  4
23.771495  35.034541 38.058916  4
45.345235  41.969549 14.639374  1
44.951673  41.485265 15.990880  1
44.305464  40.345212 16.285143  1
43.822448  39.356616 15.245998  1
43.956614  39.981258 17.699728  1
45.043899  40.096126 18.778330  1
44.629136  39.490055 20.133590  1
44.550975  37.938094 20.246235  1
44.042890  37.573639 21.644269  1
43.700351  37.252280 19.160199  1
43.461258  35.739134 19.323486  1
42.595787  35.253556 18.151184  1
42.286734  33.744222 18.135733  1
41.464003  33.326349 19.358104  1
41.633724  33.248699 16.813948  1
40.243514  33.799075 16.428792  1
40.220481  35.280808 16.050270  1
38.835735  35.903810 15.821581  1
37.909757  35.705875 17.025157  1
39.016446  37.407029 15.565511  1
46.315582  42.469998 14.696301  4
44.602346  42.685777 14.278516  4
45.439239  41.158867 13.917192  4
45.224908  42.154514 16.812069  4
43.625564  39.826077 14.278821  4
42.882637  38.885603 15.552350  4
44.568403  38.564210 15.104743  4
43.646596  38.953006 17.623439  4
43.052989  40.517774 18.014523  4
45.253429  41.161373 18.947752  4
45.985222  39.643891 18.446109  4
43.684245  39.945910 20.454144  4
45.377409  39.823419 20.870027  4
45.576009  37.556408 20.155656  4
42.992022  37.847595 21.768372  4
44.625430  38.086366 22.420211  4
44.143358  36.499927 21.827873  4
44.257345  37.318723 18.219834  4
42.737518  37.754129 19.068829  4
42.926367  35.550911 20.261747  4
44.414163  35.200867 19.353541  4
43.047502  35.550619 17.202415  4
41.664770  35.798954 18.295404  4
43.256197  33.225382 18.198074  4
40.558861  32.775423 19.086441  4
41.152284  34.182037 19.964040  4
42.060223  32.668159 19.999740  4
41.531006  32.157589 16.898663  4
42.329212  33.409845 15.980338  4
39.537688  33.586281 17.235969  4
39.889299  33.228864 15.558882  4
40.865332  35.443406 15.179694  4
40.642032  35.881910 16.841995  4
38.377561  35.452056 14.933749  4
37.405425  34.735757 16.969135  4
37.133162  36.478520 17.066047  4
38.460231  35.744155 17.972799  4
39.381906  37.920492 16.469661  4
38.068124  37.866052 15.283044  4
39.736993  37.590353 14.764590  4
49.739984  14.968622 7.715142  1
49.967804  14.395243 8.502125  1
49.793803  13.411003 8.470736  1
49.391983  13.000133 7.652368  1
49.217983  12.015883 7.620983  1
48.816162  11.605013 6.802615  1
48.642162  10.620773 6.771225  1
48.240341  10.209902 5.952857  1
48.066341  9.225653 5.921472  1
47.664521  8.814783 5.103104  1
47.490520  7.830543 5.071715  1
47.088700  7.419672 4.253347  1
46.914699  6.435423 4.221962  1
46.512879  6.024553 3.403594  1
46.338879  5.040313 3.372205  1
45.937058  4.629442 2.553837  1
45.763058  3.645193 2.522452  1
45.361238  3.234323 1.704084  1
45.187237  2.250083 1.672694  1
44.785417  1.839212 0.854326  1
44.611416  0.854963 0.822941  1
44.209596  0.444093 0.004573  1
1.099207  43.147090 0.055824  1
1.015227  44.143351 0.035560  1
1.836198  44.714192 0.023792  1
2.741159  44.288772 0.032288  1
3.562140  44.859613 0.020520  1
4.467090  44.434192 0.029017  1
5.288071  45.005034 0.017249  1
6.193022  44.579613 0.025745  1
7.014002  45.150454 0.013977  1
7.918953  44.725034 0.022474  1
8.739934  45.295875 0.010706  1
9.644884  44.870454 0.019202  1
10.465865  45.441296 0.007434  1
11.370816  45.015875 0.015931  1
12.191797  45.586716 0.004163  1
13.096747  45.161296 0.012659  1
13.917728  45.732137 0.000891  1
48.598194  0.000009 4.346972  1
48.569685  0.363249 5.278231  1
47.696762  0.638360 5.681107  1
46.852338  0.550232 5.152724  1
45.979404  0.825344 5.555599  1
45.134990  0.737215 5.027216  1
44.262057  1.012327 5.430092  1
43.417643  0.924198 4.901709  1
42.544709  1.199310 5.304584  1
41.700295  1.111181 4.776201  1
40.827362  1.386293 5.179077  1
39.982948  1.298164 4.650694  1
39.110014  1.573276 5.053570  1
38.265600  1.485147 4.525187  1
37.392667  1.760259 4.928062  1
36.548253  1.672130 4.399679  1
35.675319  1.947242 4.802555  1
11.521138  30.335419 9.574829  1
12.482683  30.918178 8.576258  1
13.339454  30.060696 7.881280  1
14.212821  30.602461 6.958801  1
14.289363  31.918335 6.678173  3
13.466221  32.751972 7.336113  1
13.525616  34.106138 7.034300  1
12.698641  35.040166 7.662059  1
11.797466  34.618836 8.628612  1
11.720856  33.265300 8.954753  1
12.540799  32.309180 8.309558  1
11.589172  29.242676 9.608751  4
10.491110  30.587860 9.302944  4
11.739648  30.711802 10.579291  4
13.328385  28.988711 8.047191  4
14.894720  29.970855 6.396648  4
14.233496  34.442710 6.280449  4
12.763630  36.090595 7.391233  4
11.151510  35.337710 9.125756  4
11.007834  32.961443 9.716549  4
41.020912  23.174730 20.866442  1
41.969933  22.652655 19.823312  1
43.086679  21.918379 20.230797  1
43.948260  21.433983 19.266284  1
43.776997  21.620730 17.942680  3
42.703397  22.320396 17.538638  1
42.510402  22.496414 16.174763  1
41.415711  23.200168 15.668044  1
40.494495  23.758365 16.541907  1
40.667129  23.601234 17.916609  1
41.762446  22.872718 18.438425  1
41.319699  22.864729 21.873662  4
40.012847  22.784536 20.692779  4
41.000130  24.269099 20.849678  4
43.284998  21.719581 21.278628  4
44.827327  20.857834 19.540549  4
43.231999  22.064731 15.485116  4
41.289713  23.306993 14.593948  4
39.640747  24.310843 16.158407  4
39.932257  24.049777 18.579809  4
25.592123  24.377216 11.381235  1
24.863937  23.476726 10.421973  1
24.370526  22.253617 10.883358  1
23.694386  21.436563 9.998766  1
23.472188  21.748219 8.706623  3
23.936993  22.924520 8.253114  1
23.691101  23.260214 6.928263  1
24.128146  24.467279 6.378385  1
24.843473  25.359768 7.163006  1
25.108938  25.045298 8.495273  1
24.652751  23.833515 9.066431  1
25.614364  23.954950 12.391712  4
25.090587  25.348194 11.446563  4
26.628688  24.519097 11.059117  4
24.502766  21.939223 11.913149  4
23.294165  20.478248 10.317173  4
23.134574  22.562200 6.307200  4
23.906226  24.702444 5.340879  4
25.191192  26.300479 6.744262  4
25.672769  25.760728 9.087993  4
27.327989  11.367765 25.451413  1
27.207631  10.274508 26.476901  1
28.360511  9.598065 26.883864  1
28.243125  8.601954 27.833196  1
27.076816  8.239774 28.403004  3
25.962238  8.887289 28.023744  1
24.761303  8.533095 28.624316  1
23.557953  9.162159 28.297811  1
23.544761  10.161259 27.335789  1
24.735780  10.532878 26.713158  1
25.962944  9.914832 27.052035  1
28.370947  11.533899 25.160717  4
26.949858  12.312107 25.856183  4
26.770236  11.105263 24.546780  4
29.336041  9.841105 26.476342  4
29.114588  8.052525 28.177590  4
24.765027  7.747270 29.376067  4
22.639045  8.867812 28.797749  4
22.613330  10.655101 27.071692  4
24.698040  11.317037 25.961671  4
19.383243  36.280936 31.882049  1
18.268581  35.309661 32.156772  1
18.392304  34.422861 33.229435  1
17.360127  33.540562 33.481243  1
16.226367  33.482491 32.755055  3
16.093661  34.334461 31.724552  1
14.917736  34.293794 30.987036  1
14.692358  35.150819 29.907642  1
15.669703  36.064060 29.540697  1
16.862238  36.122455 30.260939  1
17.091087  35.271687 31.368445  1
20.185122  36.193453 32.623132  4
19.011020  37.309545 31.926998  4
19.821005  36.090455 30.896941  4
19.271973  34.417593 33.864222  4
17.416052  32.835515 34.305687  4
14.149808  33.576653 31.267501  4
13.754441  35.099598 29.361145  4
15.506052  36.733433 28.700251  4
17.612446  36.845507 29.951996  4
7.813102  6.728298 11.005064  1
6.618044  6.106693 10.355703  1
6.053265  6.755012 9.301586  3
4.972521  6.225079 8.688634  1
4.363072  5.035062 9.049864  1
4.925899  4.346758 10.133642  1
4.613320  3.122087 10.806434  1
3.619566  2.135431 10.638890  1
3.597195  1.028350 11.495341  1
4.544849  0.894432 12.507258  1
5.540034  1.857917 12.693870  1
5.546681  2.958095 11.828376  1
6.392240  4.040166 11.778589  3
7.168970  4.184356 12.406576  4
6.040965  4.898456 10.762106  1
8.080917  7.669378 10.514942  4
8.670317  6.051088 10.941473  4
7.602647  6.936718 12.058525  4
4.588348  6.810078 7.857247  4
3.497161  4.661858 8.518014  4
2.876292  2.230569 9.853031  4
2.831887  0.266643 11.367870  4
4.511129  0.027067 13.162787  4
6.276204  1.750032 13.483669  4
20.273392  4.571634 39.960167  1
18.995594  4.700739 39.194146  1
18.960977  4.219643 37.922216  3
17.824827  4.317735 37.198277  1
16.645639  4.885890 37.650792  1
16.654568  5.389469 38.959012  1
15.678638  6.034584 39.784579  1
14.332179  6.412125 39.601222  1
13.646253  7.044686 40.644778  1
14.280690  7.302853 41.857541  1
15.614038  6.938370 42.064565  1
16.284067  6.307189 41.009963  1
17.576308  5.846408 40.931728  3
18.249772  5.911887 41.680478  4
17.829771  5.285391 39.701155  1
21.044315  4.081573 39.357594  4
20.111685  3.975209 40.863274  4
20.640027  5.561353 40.249214  4
17.888254  3.907507 36.193932  4
15.766392  4.934926 37.021135  4
13.828580  6.215306 38.659558  4
12.608215  7.336573 40.505413  4
13.731064  7.795352 42.656624  4
16.104745  7.141668 43.010738  4
26.558681  2.585366 32.053358  1
26.225816  3.492441 33.194692  1
26.946646  3.368260 34.341618  3
26.675770  4.169729 35.394624  1
25.692308  5.144662 35.413710  1
24.934757  5.293269 34.243606  1
23.857523  6.153709 33.857104  1
23.142984  7.183730 34.503321  1
22.115871  7.843675 33.818376  1
21.795691  7.492322 32.509180  1
22.488867  6.475525 31.846493  1
23.512388  5.826558 32.547036  1
24.346428  4.807783 32.153587  3
24.320703  4.370766 31.244289  4
25.218866  4.463467 33.160360  1
27.380397  1.911448 32.314495  4
26.860003  3.173589 31.181191  4
25.687127  1.978856 31.788682  4
27.300428  4.000811 36.267715  4
25.523164  5.756649 36.290528  4
23.384910  7.465129 35.523795  4
21.563792  8.637976 34.314799  4
20.994316  8.016715 31.993440  4
22.236039  6.204578 30.826673  4
6.554800  8.144718 14.665057  1
7.542437  7.601834 15.647949  1
8.671392  8.322800 15.884852  3
9.587257  7.865373 16.766044  1
9.477298  6.682696 17.478251  1
8.322635  5.920531 17.252490  1
7.834325  4.676341 17.766024  1
8.325461  3.737580 18.696949  1
7.574048  2.590933 18.980177  1
6.350339  2.371138 18.352338  1
5.841464  3.286184 17.426454  1
6.606576  4.426672 17.155517  1
6.359159  5.477090 16.304792  3
5.534666  5.560439 15.728830  4
7.381168  6.397632 16.342146  1
6.896935  9.098124 14.250887  4
5.589389  8.308412 15.153587  4
6.419805  7.439480 13.839268  4
10.456466  8.505300 16.892492  4
10.247220  6.369508 18.171851  4
9.278308  3.899722 19.191795  4
7.950940  1.865989 19.697500  4
5.780931  1.474156 18.585518  4
4.887892  3.111011 16.939235  4
25.380669  1.082722 41.685399  1
25.170433  1.783176 40.381025  1
26.178678  2.561322 39.903125  3
26.026545  3.210056 38.728159  1
24.892983  3.152936 37.934540  1
23.838724  2.357433 38.404458  1
22.534879  2.036586 37.907245  1
21.807893  2.396099 36.753404  1
20.516259  1.889305 36.567724  1
19.946157  1.036357 37.509755  1
20.645799  0.664633 38.661208  1
21.935773  1.181266 38.830241  1
22.839482  0.990483 39.847708  3
22.670768  0.411905 40.657183  4
24.001520  1.690438 39.617440  1
26.370193  1.306282 42.095810  4
25.301858  -0.000003 41.547662  4
24.626760  1.404210 42.410505  4
26.881780  3.807703 38.424168  4
24.831495  3.697102 37.000704  4
22.243429  3.060393 36.013063  4
19.954141  2.165289 35.678905  4
18.941251  0.652788 37.347848  4
20.197895  0.000228 39.392860  4
26.419394  15.789253 32.632283  1
25.873696  15.922313 34.021757  1
26.002285  14.891016 34.938771  1
25.611720  15.101029 36.265141  1
25.796974  14.085844 37.219828  1
25.511217  14.308298 38.576263  1
25.748309  13.353550 39.569244  1
25.527190  13.549650 40.890672  3
25.032648  14.751006 41.244605  1
24.734289  15.759371 40.343250  1
24.982054  15.542978 38.980789  1
24.744559  16.538215 38.013440  1
25.069690  16.347130 36.645091  1
24.919344  17.316670 35.626319  1
24.383784  18.697384 35.869059  1
25.327287  17.111905 34.345460  3
26.768472  14.772559 32.426776  4
27.268125  16.470810 32.510981  4
25.651514  16.044670 31.896587  4
26.444135  13.947287 34.633739  4
26.205938  13.126752 36.914319  4
26.154690  12.376141 39.324005  4
24.879965  14.893859 42.311006  4
24.336456  16.702955 40.703076  4
24.329295  17.483543 38.346902  4
23.813317  18.792602 36.794551  4
23.707493  18.978384 35.053824  4
25.212540  19.412656 35.892498  4
23.117317  26.292644 31.665494  1
23.056634  27.764877 31.391674  1
24.068319  28.610583 31.818638  1
24.052513  29.951919 31.423071  1
25.106265  30.805069 31.794675  1
25.167254  32.126136 31.323378  1
26.232077  32.985875 31.607573  1
26.345662  34.249274 31.133816  3
25.344293  34.687692 30.347592  1
24.229217  33.932592 30.024039  1
24.135243  32.622385 30.512958  1
23.052500  31.782512 30.189004  1
22.996731  30.430946 30.618843  1
21.977491  29.508757 30.285341  1
20.801180  29.851493 29.418770  1
22.016170  28.200046 30.652390  3
23.942836  26.036281 32.336726  4
23.267055  25.755965 30.722556  4
22.183815  25.952573 32.122714  4
24.885340  28.218536 32.416699  4
25.909032  30.428307 32.422417  4
27.062470  32.665609 32.230865  4
25.464156  35.697146 29.963448  4
23.460427  34.354261 29.384311  4
22.262160  32.188144 29.566019  4
20.607395  30.922747 29.341992  4
19.893919  29.397913 29.833599  4
20.958774  29.450352 28.412168  4
46.308470  5.107782 21.892048  1
44.996630  4.745832 21.264196  1
44.146962  5.725763 20.775498  1
43.000845  5.348344 20.068481  1
42.164991  6.331846 19.511328  1
41.068177  5.978584 18.709290  1
40.254415  6.922463 18.076320  1
39.217299  6.617709 17.260821  3
38.965758  5.308217 17.073591  1
39.688697  4.289633 17.672009  1
40.766969  4.624085 18.502663  1
41.572913  3.641330 19.108725  1
42.712009  3.979452 19.885086  1
43.604094  3.053035 20.473679  1
43.453697  1.564975 20.350473  1
44.730195  3.430140 21.135974  3
46.409219  6.188507 22.032183  4
47.124209  4.771939 21.242927  4
46.409148  4.623500 22.867476  4
44.398292  6.774062 20.905131  4
42.391371  7.382993 19.667175  4
40.431047  7.987854 18.196153  4
38.141286  5.085735 16.401522  4
39.426423  3.255113 17.474330  4
41.318767  2.599930 18.940855  4
42.448309  1.245061 20.071398  4
43.677220  1.091531 21.313192  4
44.161839  1.185792 19.606326  4
19.684294  11.471452 36.784172  1
20.816291  10.494846 36.888829  1
22.129882  10.932135 36.954271  1
23.149136  10.005507 37.195901  1
24.478168  10.443871 37.329535  1
25.503068  9.549117 37.676024  1
26.823930  9.952928 37.890563  1
27.827218  9.126064 38.269022  3
27.506692  7.828262 38.430492  1
26.238438  7.313766 38.218161  1
25.209613  8.187034 37.839432  1
23.887333  7.741980 37.649256  1
22.830599  8.638876 37.343489  1
21.470228  8.279876 37.198519  1
20.963130  6.875672 37.350779  1
20.483468  9.192022 36.990583  3
20.040936  12.493599 36.623622  4
19.106575  11.455479 37.714529  4
19.026020  11.202247 35.953310  4
22.353277  11.990721 36.862667  4
24.713540  11.497107 37.204083  4
27.119373  10.992535 37.778546  4
28.321940  7.185676 38.752024  4
26.055086  6.254441 38.367522  4
23.683346  6.683701 37.774635  4
21.737458  6.113621 37.247197  4
20.214570  6.668853 36.577589  4
20.488000  6.762244 38.330771  4
43.847223  48.884308 45.601238  1
42.714219  48.022095 46.069236  1
42.918753  46.688633 46.387148  1
41.874895  45.952144 46.956224  1
42.088082  44.617639 47.343518  1
41.090104  43.890685 48.011828  1
41.283357  42.587634 48.479244  1
40.360053  41.874015 49.166107  3
39.178347  42.479511 49.389814  1
38.868519  43.755315 48.948689  1
39.841407  44.483824 48.250637  1
39.611971  45.801662 47.810946  1
40.623786  46.566983 47.174459  1
40.491590  47.912920 46.760351  1
39.237761  48.716894 46.943809  1
41.520752  48.628167 46.232912  3
44.754580  48.300853 45.416744  4
44.073940  49.630997 46.369765  4
43.575263  49.399431 44.675597  4
43.895394  46.239374 46.234703  4
43.052293  44.151083 47.161678  4
42.225791  42.069118 48.325702  4
38.458717  41.896510 49.958295  4
37.892865  44.178219 49.166282  4
38.637330  46.239194 48.000486  4
38.344784  48.110497 47.104772  4
39.051073  49.317474 46.046373  4
39.359169  49.395494 47.794550  4
21.903016  21.163303 24.834141  1
22.606477  20.515765 25.988250  1
23.287854  19.319735 25.826199  1
24.051769  18.817661 26.884621  1
24.799893  17.639927 26.712571  1
25.655846  17.173222 27.722814  1
26.472049  16.049127 27.567924  1
27.341343  15.597414 28.502700  3
27.394541  16.289046 29.656785  1
26.612316  17.399222 29.928616  1
25.727626  17.860017 28.943981  1
24.934134  19.007604 29.133926  1
24.097686  19.519520 28.107818  1
23.319888  20.697319 28.199069  1
23.278816  21.570673 29.418776  1
22.602054  21.191429 27.155270  3
21.883602  20.515060 23.952574  4
22.426041  22.087183 24.564939  4
20.871711  21.405848 25.105629  4
23.260478  18.806335 24.869866  4
24.749349  17.102134 25.769878  4
26.463574  15.470446 26.648319  4
28.111453  15.920680 30.385670  4
26.709630  17.905777 30.883618  4
25.000390  19.520190 30.087945  4
23.613154  21.071545 30.329888  4
22.249550  21.899619 29.601381  4
23.900929  22.456877 29.255630  4
25.258088  41.143679 48.389652  1
26.270227  40.282984 47.696007  1
26.897458  39.233702 48.352045  1
27.850203  38.432432 47.680195  1
28.540620  37.335065 48.277233  1
28.311621  36.976347 49.595290  2
29.486714  36.546252 47.593362  1
30.110099  35.515542 48.212451  3
31.008066  34.783603 47.526975  1
31.340122  35.020446 46.211311  1
30.712633  36.076265 45.550747  1
31.070216  36.341660 44.111958  1
29.760876  36.863846 46.251332  1
29.082096  37.948600 45.654045  1
28.130580  38.743435 46.333589  1
27.442384  39.831916 45.743468  1
27.633246  40.281909 44.321250  1
26.532599  40.584339 46.412405  3
25.098782  40.831306 49.426128  4
24.299657  41.085397 47.864469  4
25.597336  42.184194 48.394730  4
26.629440  39.056936 49.386886  4
27.659251  37.550667 50.009958  4
31.467353  33.974201 48.086662  4
32.072819  34.391857 45.717524  4
31.819749  35.633357 43.744062  4
31.489560  37.347323 44.003761  4
30.184950  36.241122 43.475464  4
29.311561  38.173576 44.618459  4
28.349951  39.695055 43.747338  4
27.980664  41.320319 44.312394  4
26.675422  40.230947 43.792873  4
26.364802  22.051865 30.269130  1
27.798606  21.876263 30.668802  1
28.598340  22.964281 30.987299  1
29.949580  22.778171 31.362337  1
30.840882  23.838677 31.706216  1
30.422297  25.158906 31.692968  2
32.184515  23.635894 32.078409  1
32.983535  24.682405 32.395622  3
34.262027  24.450051 32.746944  1
34.820437  23.192235 32.805285  1
34.018977  22.097383 32.483100  1
34.622156  20.718685 32.544571  1
32.666252  22.315272 32.109467  1
31.790396  21.260867 31.769921  1
30.440769  21.456727 31.396997  1
29.553200  20.406378 31.056945  1
29.929722  18.950426 31.049093  1
28.260526  20.614154 30.700370  3
26.066407  23.104569 30.272552  4
25.716830  21.511175 30.965973  4
26.209885  21.656136 29.260574  4
28.149183  23.949028 30.937214  4
29.499019  25.234630 31.429905  4
34.842593  25.335564 32.988059  4
35.858364  23.074964 33.096407  4
35.672738  20.750007 32.851387  4
34.583118  20.242418 31.559400  4
34.086719  20.101661 33.273624  4
32.186083  20.251822 31.800987  4
30.958911  18.741825 31.340116  4
29.786683  18.543727 30.042511  4
29.280052  18.403863 31.740761  4
35.441462  36.776841 37.378072  1
34.863019  37.034539 36.019631  1
34.735184  38.323006 35.521325  1
34.186695  38.545964 34.236573  1
34.020163  39.835262 33.647231  1
34.398393  40.984980 34.320644  2
33.472397  40.039922 32.365411  1
33.339799  41.288314 31.857296  3
32.812392  41.445051 30.628788  1
32.390586  40.397211 29.840475  1
32.515886  39.101399 30.340490  1
32.057025  37.950214 29.484552  1
33.069592  38.908608 31.634006  1
33.230722  37.629746 32.210839  1
33.780872  37.416755 33.495711  1
33.949160  36.138545 34.082655  1
33.566314  34.845465 33.417071  1
34.478612  35.953931 35.318342  3
35.732461  37.704457 37.880153  4
36.329849  36.143919 37.288724  4
34.703468  36.266284 38.004556  4
35.069258  39.139709 36.150107  4
34.762625  40.782747 35.188871  4
32.737028  42.472947 30.286626  4
31.974260  40.593351 28.858641  4
31.660309  38.293558 28.523525  4
31.258578  37.396129 29.988920  4
32.894358  37.277662 29.271302  4
32.911872  36.773514 31.626966  4
33.146024  34.951712 32.417318  4
32.821516  34.327808 34.030569  4
34.451076  34.205996 33.330580  4
33.392277  22.726187 24.466650  1
32.716028  23.995828 24.887443  1
31.600367  24.476585 24.217389  1
30.975867  25.677056 24.629707  1
29.826278  26.241689 23.999644  1
29.232661  25.627370 22.909404  2
29.215799  27.438604 24.423566  1
28.124654  27.926061 23.786362  3
27.568042  29.072404 24.219995  1
28.046407  29.795371 25.290422  1
29.169273  29.315186 25.963799  1
29.698416  30.099938 27.135372  1
29.775352  28.107547 25.526514  1
30.913147  27.555233 26.154652  1
31.530038  26.354038 25.735724  1
32.669791  25.790126 26.359915  1
33.369463  26.393651 27.546441  1
33.248854  24.636038 25.942675  3
32.896701  22.265768 23.606618  4
33.379694  22.008154 25.292529  4
34.431287  22.932956 24.191894  4
31.233141  23.900519 23.376396  4
29.693423  24.817728 22.665361  4
26.696895  29.402442 23.661870  4
27.549976  30.712287 25.588110  4
29.102475  30.999251 27.322271  4
30.726794  30.423054 26.943149  4
29.667238  29.491882 28.045441  4
31.326037  28.090329 27.002532  4
32.927260  27.317772 27.917784  4
34.409229  26.612925 27.282095  4
33.364666  25.676476 28.373993  4
20.110936  17.530280 36.574725  1
20.154173  17.894086 38.028047  1
19.771009  19.152260 38.469611  1
19.818798  19.476763 39.845675  1
19.442905  20.743496 40.385523  1
18.993410  21.766220 39.566753  2
19.495866  21.050301 41.759591  1
19.124860  22.270947 42.214146  3
19.188460  22.527767 43.533977  1
19.615130  21.611337 44.469625  1
20.003112  20.346848 44.027607  1
20.470808  19.339104 45.044527  1
19.945103  20.050191 42.639957  1
20.319289  18.794580 42.113069  1
20.267332  18.479210 40.735837  1
20.637899  17.222580 40.197127  1
21.132668  16.063541 41.017772  1
20.582145  16.938625 38.871387  3
19.748596  18.358029 35.957654  4
19.443131  16.676019 36.426134  4
21.114080  17.260785 36.229962  4
19.437997  19.865533 37.725083  4
18.980893  21.499117 38.641616  4
18.875413  23.525934 43.825505  4
19.642113  21.883306 45.518959  4
20.446548  19.747870 46.059988  4
21.503544  19.040510 44.836653  4
19.822416  18.456864 45.031467  4
20.662795  18.040536 42.812445  4
21.182035  16.249620 42.090328  4
22.139968  15.788679 40.687816  4
20.470812  15.204066 40.867920  4
24.380757  27.406932 40.646575  1
24.617401  28.616533 41.567221  1
25.616532  29.562369 40.892956  1
23.280935  29.323214 41.872230  1
22.226072  28.540773 42.528865  3
22.108899  27.935517 43.738820  1
20.970230  27.617706 44.096529  2
23.315433  27.750511 44.679883  1
23.290214  26.344410 45.340308  1
23.417188  25.245268 44.276681  1
24.407678  26.150278 46.376920  1
23.193869  28.813357 45.676576  3
23.645370  30.100511 45.595315  1
23.148052  30.938635 46.342975  2
24.691759  30.487729 44.523109  1
25.755975  31.432855 45.149421  1
26.538474  30.737145 46.268449  1
26.750091  31.960640 44.106927  1
23.943238  31.199816 43.487549  3
23.253292  30.771901 42.404388  1
22.491217  31.593624 41.879928  2
25.321856  26.888258 40.434372  4
23.948380  27.715731 39.687736  4
23.701274  26.682736 41.107135  4
25.099154  28.236524 42.465235  4
25.195471  30.009681 39.986654  4
26.529650  29.025879 40.612452  4
25.911286  30.370718 41.567371  4
22.849784  29.463646 40.865866  4
21.304223  28.675252 42.122655  4
24.248539  27.855266 44.146746  4
22.334482  26.200009 45.860637  4
24.385547  25.295417 43.766689  4
22.630298  25.324627 43.521060  4
23.328540  24.253918 44.734530  4
25.390255  26.413225 45.970491  4
24.454854  25.103904 46.703612  4
24.231864  26.756820 47.270906  4
22.402412  28.739887 46.310567  4
25.186970  29.620301 44.097994  4
25.252970  32.305596 45.588191  4
27.096104  29.876086 45.885811  4
25.877166  30.389489 47.067610  4
27.256218  31.430136 46.721922  4
27.248930  31.140359 43.580747  4
27.524638  32.570925 44.585858  4
26.253330  32.594294 43.365393  4
23.634307  32.131848 43.750032  4
17.532996  0.661969 18.481997  1
17.144178  1.919454 19.278410  1
16.092388  2.701182 18.484596  1
16.625716  1.525306 20.676414  1
17.531198  0.776912 21.557393  3
18.722713  1.053337 22.147256  1