NumberOfAtoms 224
SpinPolarized yes
#FixSpin .true.
#TotalSpin 
NumberOfSpecies 4

 
MD.TypeOfRun  nose
MD.FinalTimeStep 10
MD.LengthTimeStep 1.0  fs
MD.InitialTemperature 300 K 
MD.TargetTemperature  300  K


%block ChemicalSpeciesLabel
1  6  C
2  8  O
3  7  N
4  1  H
%endblock ChemicalSpeciesLabel

PAO.BasisSize dzp 
 PAO.EnergyShift 0.02 Ry 
 
MeshCutoff          100 Ry
MaxSCFIterations    100  
DM.NumberPulay       3  
DM.Tolerance         1e-3
WriteDenchar	.true.

%block ProjectedDensityOfStates
-10.0 10.0 0.200 500 eV
%endblock ProjectedDensityOfStates
NetCharge 0.00

%block BandLines
1  1.000  1.000 1.000  L
20 0.00   0.00   0.00  \Gamma
25 2.00   0.000  0.00  X
30 2.00   2.00   2.00  \Gamma
%endblock BandLines


LongOutput .true.
WriteCoorXmol .true.
LatticeConstant 1 Ang
%block LatticeVectors
  25.712028 0.0 0.0
  0.0 37.06897 0.0
  0.0 0.0 33.442021
%endblock LatticeVectors


 

#UseSaveData .true.  
%block kgrid_Monkhorst_Pack
1 0 0 0.0 
 0 1 0 0.0 
 0 0 1 0.0 

%endblock kgrid_Monkhorst_Pack
WriteMDXmol .true.
AtomicCoordinatesFormat Ang
%block AtomicCoordinatesAndAtomicSpecies
24.182944  11.246320 5.012599  1 
22.898218  10.435142 5.146824  1 
21.954996  10.631207 3.947183  1 
20.628824  9.858779 3.972161  1 
19.419256  10.581041 3.956222  1 
19.489038  11.951640 4.022599  2 
18.152498  9.948163 3.866718  1 
16.933942  10.661893 3.825030  1 
15.717439  9.983355 3.758361  1 
15.711040  8.592752 3.699623  1 
16.880123  7.848530 3.705575  1 
16.804833  6.516555 3.630303  3 
17.942716  5.774357 3.663971  1 
17.726813  4.274572 3.605848  1 
17.649970  3.652891 2.189704  1 
18.921864  3.855274 1.363049  1 
17.359376  2.149216 2.294676  1 
19.232825  6.356800 3.770394  1 
20.435621  5.610892 3.805638  1 
21.689951  6.228148 3.809486  1 
22.977541  5.426592 3.747822  1 
23.925240  5.849650 2.592970  1 
25.226848  5.012821 2.494237  1 
26.113352  5.434278 1.309748  1 
26.064385  5.130077 3.767658  1 
21.720065  7.616703 3.904213  1 
20.572059  8.433055 3.912266  1 
19.305501  7.770782 3.830441  1 
18.117873  8.538502 3.802807  1 
24.919540  10.896474 5.744708  4 
24.000312  12.307978 5.200967  4 
24.630090  11.139633 4.018246  4 
22.392625  10.698455 6.081467  4 
23.203719  9.395267 5.259169  4 
22.466888  10.366733 3.012774  4 
21.767368  11.708323 3.861266  4 
18.836354  12.241415 4.682079  4 
16.912902  11.745526 3.834373  4 
14.781355  10.537668 3.747494  4 
14.756274  8.068309 3.646593  4 
16.766614  4.073644 4.109731  4 
18.463905  3.751148 4.217186  4 
16.816644  4.112872 1.643400  4 
19.821695  3.651465 1.947582  4 
18.976573  4.879269 0.980521  4 
18.952759  3.179418 0.501762  4 
18.203461  1.608653 2.737684  4 
17.174653  1.722785 1.301946  4 
16.472043  1.956643 2.906162  4 
20.411781  4.528985 3.803896  4 
22.744580  4.359952 3.644483  4 
23.479743  5.546393 4.715022  4 
24.202338  6.903676 2.718857  4 
23.378727  5.788008 1.642749  4 
24.959311  3.958879 2.347858  4 
26.239054  6.521124 1.261184  4 
25.702485  5.089810 0.355648  4 
27.116367  4.995998 1.400273  4 
26.316353  6.176588 3.970272  4 
27.001672  4.571467 3.669279  4 
25.536882  4.722547 4.632754  4 
22.708324  8.065558 3.953552  4 
21.862281  6.410915 13.398586  1 
22.818464  6.216868 12.240697  1 
22.037405  6.249385 10.910192  1 
21.482315  7.707336 10.856039  1 
20.361704  7.893705 11.905303  1 
20.621346  7.147025 13.216748  1 
19.549906  7.071067 14.155394  1 
19.734348  6.204235 15.229509  1 
21.023363  5.627956 15.368537  1 
22.145357  5.702600 14.570067  1 
21.140341  4.875083 16.510436  1 
22.301815  4.322347 16.954589  1 
23.435060  4.321032 16.125641  1 
23.298702  5.036339 14.930680  3 
18.635790  5.962050 16.190780  1 
18.855466  5.134061 17.351991  1 
20.108840  4.653708 17.420508  1 
18.375904  7.714006 14.050349  3 
17.398282  7.514751 15.006712  1 
17.445836  6.643101 16.135236  1 
16.480908  6.515312 17.280529  1 
16.920546  5.878713 18.504606  1 
18.105004  5.170769 18.543206  1 
18.804740  4.817535 19.752186  1 
20.014605  4.110748 19.780955  1 
20.672904  4.138576 18.568084  1 
15.192982  7.055564 17.372253  1 
14.446788  7.120335 18.521833  3 
14.998281  6.673063 19.679036  1 
16.251035  6.095085 19.725798  1 
16.907337  5.738019 21.049172  1 
18.432102  5.639513 20.979062  1 
20.980265  5.090002 10.835059  1 
21.588165  3.672051 10.939742  1 
20.553363  2.535949 10.950611  1 
19.585066  2.619827 12.123108  1 
21.092496  8.247205 9.467534  1 
22.262358  8.301797 8.484601  1 
24.780599  3.679279 16.401099  1 
24.792717  2.305809 17.125739  1 
26.194115  1.748319 17.289076  1 
24.211117  2.307678 18.522866  1 
19.195290  7.027871 21.041697  1 
18.932421  8.154041 20.013369  1 
19.434927  7.907986 18.617466  1 
14.102364  6.746145 20.891885  1 
14.228644  8.059264 21.679118  1 
13.307802  8.104223 22.922425  1 
13.652975  6.984423 23.910100  1 
13.323850  9.475936 23.644878  1 
14.668664  9.853306 24.277313  1 
14.625363  11.191978 24.999946  1 
21.979008  3.940865 18.241588  3 
14.441537  7.556670 16.171262  1 
23.344193  5.261179 12.322868  4 
23.591304  6.993552 12.268377  4 
22.754096  6.093310 10.098369  4 
22.300587  8.371849 11.175678  4 
19.414307  7.534935 11.482570  4 
20.241686  8.962737 12.122248  4 
16.557037  8.174761 14.840588  4 
20.528212  3.840848 20.696241  4 
16.666403  6.472968 21.824359  4 
16.502209  4.771626 21.375829  4 
18.763851  5.090656 21.878472  4 
20.400729  5.165178 9.908934  4 
20.252845  5.190187 11.643908  4 
22.178999  3.570376 11.856566  4 
22.274280  3.512878 10.100384  4 
21.085404  1.576725 11.012271  4 
19.994108  2.523896 10.009047  4 
20.124536  2.660791 13.075123  4 
18.926112  1.745931 12.142660  4 
18.948176  3.505179 12.047755  4 
20.729392  9.278199 9.585489  4 
20.270736  7.669483 9.035244  4 
23.038622  8.993178 8.832845  4 
21.920509  8.658046 7.507025  4 
22.722082  7.322544 8.332235  4 
25.408110  4.408313 16.927138  4 
25.258661  3.521460 15.421318  4 
24.195296  1.606627 16.527780  4 
26.821474  2.442595 17.858012  4 
26.650510  1.543302 16.321803  4 
26.146866  0.807075 17.851969  4 
24.454699  3.238141 19.056696  4 
24.477046  1.472491 19.171968  4 
23.153486  2.113746 18.377554  4 
20.277952  6.838439 21.057759  4 
18.960893  7.474410 22.017984  4 
19.433290  9.069922 20.332074  4 
17.858824  8.367982 19.976557  4 
20.392754  7.389247 18.541702  4 
19.358903  8.740545 17.916714  4 
18.691982  7.286744 18.211476  4 
14.309236  5.878442 21.529336  4 
13.072772  6.613844 20.543867  4 
13.990984  8.897911 21.013097  4 
15.269024  8.202439 21.991160  4 
12.276310  7.941517 22.579773  4 
14.729578  6.953597 24.108728  4 
13.355496  6.006700 23.520511  4 
13.132607  7.124123 24.863070  4 
12.564173  9.451508 24.438974  4 
13.006675  10.260086 22.946487  4 
15.450553  9.888712 23.512644  4 
14.960781  9.096772 25.012879  4 
14.397321  12.015344 24.316267  4 
15.599397  11.392751 25.459467  4 
13.876027  11.182186 25.797669  4 
22.603096  3.682743 18.979612  4 
13.367936  7.518895 16.357376  4 
14.634636  6.914849 15.304696  4 
14.716513  8.591715 15.951169  4 
29.043872  24.122487 4.906777  1 
28.291733  24.954549 3.853836  1 
29.301134  25.827332 3.100932  1 
27.515701  24.026832 2.896921  1 
26.503487  23.135384 3.477318  3 
25.331453  23.332710 4.134170  1 
24.569874  22.364223 4.221101  2 
24.909059  24.721598 4.651976  1 
24.272513  24.614009 6.065182  1 
25.294602  24.082764 7.079407  1 
23.728068  25.955574 6.579732  1 
23.950669  25.224733 3.669041  3 
24.208720  25.901017 2.510044  1 
23.338069  25.922091 1.643848  2 
25.598874  26.540539 2.279884  1 
25.426875  27.948659 1.642938  1 
24.675245  28.902047 2.578162  1 
26.771381  28.584680 1.266906  1 
26.286023  25.652174 1.342670  3 
27.027238  24.533982 1.523294  1 
27.236618  23.846307 0.516165  2 
29.587721  24.771805 5.601279  4 
29.774084  23.453244 4.437115  4 
28.354689  23.510839 5.497696  4 
27.635660  25.629406 4.398865  4 
29.988338  25.219759 2.503127  4 
29.897635  26.422257 3.801317  4 
28.794821  26.528135 2.431854  4 
28.288660  23.302110 2.587579  4 
26.536138  22.187303 3.112663  4 
25.754022  25.391036 4.713507  4 
23.430530  23.910273 6.036246  4 
26.130739  24.779745 7.203578  4 
25.701176  23.115321 6.770849  4 
24.826471  23.940221 8.059608  4 
24.475760  26.752827 6.508116  4 
23.431840  25.874496 7.633073  4 
22.839768  26.266057 6.020681  4 
23.065602  24.727151 3.616004  4 
26.169393  26.629017 3.199160  4 
24.840834  27.859403 0.717844  4 
25.229835  29.063808 3.508243  4 
23.682919  28.518497 2.833167  4 
24.531026  29.876045 2.096958  4 
27.437454  28.650333 2.133280  4 
26.623969  29.599946 0.880578  4 
27.279430  28.012669 0.484057  4 
25.936752  25.686894 0.388823  4 
 %endblock AtomicCoordinatesAndAtomicSpecies


