NumberOfAtoms 6233
SpinPolarized yes
#FixSpin .true.
#TotalSpin
NumberOfSpecies 4


MD.TypeOfRun  nose
MD.FinalTimeStep 50
MD.LengthTimeStep 0.5  fs
MD.InitialTemperature 300 K
MD.TargetTemperature  300  K


%block ChemicalSpeciesLabel
1 6 C
2 8 O
3 7 N
4 1 H
%endblock ChemicalSpeciesLabel
PAO.BasisSize dzp 
 PAO.EnergyShift 0.02 Ry 
MeshCutoff          100 Ry
MaxSCFIterations    100
DM.NumberPulay       3
DM.Tolerance         1e-3
WriteDenchar	.true.
%block ProjectedDensityOfStates
-10.0 10.0 0.200 500 eV
%endblock ProjectedDensityOfStates
NetCharge 0.00

%block BandLines
1  1.000  1.000 1.000  L
20 0.00   0.00   0.00  \Gamma
25 2.00   0.000  0.00  X
30 2.00   2.00   2.00  \Gamma
%endblock BandLines


LongOutput .true.
WriteCoorXmol .true.
LatticeConstant 1 Ang
%block LatticeVectors
  30 0.0 0.0
  0.0 30 0.0
0.0 0.0 30
%endblock LatticeVectors




#UseSaveData .true.
%block kgrid_Monkhorst_Pack
1 0 0 0.0 
 0 1 0 0.0 
 0 0 1 0.0

%endblock kgrid_Monkhorst_Pack
WriteMDXmol .true.
AtomicCoordinatesFormat Ang
%block AtomicCoordinatesAndAtomicSpecies
61.489539  12.087542 32.502894  1
60.220357  11.337692 32.295786  1
59.622799  10.503842 33.162687  1
60.188703  10.151656 34.521425  1
58.342502  9.797777 32.819871  1
57.190600  10.614945 32.216445  1
55.868724  9.828528 32.115082  1
55.091865  9.533081 33.432876  1
53.866994  8.677018 33.097726  1
55.930443  8.874635 34.544906  1
55.169889  8.417093 35.804133  1
56.176400  7.789114 36.779682  1
55.588305  7.305419 38.119095  1
54.571234  6.179121 37.912416  1
56.662441  6.915513 39.174218  1
57.602280  5.730451 38.863935  1
58.600639  5.980269 37.732470  1
59.438373  4.773762 37.284706  1
58.563630  3.579616 36.892216  1
60.288828  5.194934 36.077546  1
61.413977  13.073895 32.037425  4
62.314742  11.542587 32.036903  4
61.714904  12.242124 33.557837  4
59.750845  11.497278 31.320598  4
61.277296  10.241686 34.559472  4
59.959665  9.115324 34.790698  4
59.756663  10.804953 35.290094  4
58.023905  9.387276 33.762855  4
58.552003  8.920528 32.195349  4
57.472662  10.911752 31.196786  4
57.024209  11.543121 32.774817  4
56.047634  8.900030 31.558970  4
55.195873  10.424071 31.477914  4
54.729356  10.495595 33.815937  4
54.158969  7.668410 32.794021  4
53.284697  9.125971 32.283046  4
53.199069  8.597624 33.960416  4
56.617461  9.635876 34.928914  4
56.486246  8.028846 34.141207  4
54.423883  7.662432 35.528756  4
54.652534  9.262773 36.268710  4
57.002235  8.479504 36.963566  4
56.542585  6.925572 36.227184  4
55.047863  8.162125 38.551432  4
54.790187  5.298545 38.523355  4
54.522161  5.846598 36.871478  4
53.570959  6.525489 38.195024  4
56.124018  6.660422 40.097948  4
57.265044  7.797872 39.424996  4
57.001592  4.837699 38.671135  4
58.179224  5.516233 39.774209  4
59.248642  6.822386 37.999124  4
58.086792  6.281252 36.831788  4
60.111237  4.478108 38.098397  4
58.304686  2.984164 37.773694  4
59.080359  2.917235 36.187948  4
57.628865  3.898944 36.416024  4
59.654102  5.405071 35.201385  4
60.984533  4.401530 35.801307  4
60.867025  6.096779 36.293495  4
24.553469  19.026500 61.846298  1
25.511461  20.158310 61.977626  1
25.337131  21.287923 62.682950  1
24.075223  21.617035 63.450885  1
26.386305  22.361714 62.720593  1
27.842478  21.958055 62.995156  1
28.778777  23.160702 63.225517  1
28.645696  23.943554 64.565969  1
29.608831  25.133899 64.535475  1
27.216206  24.406434 64.906080  1
27.060797  25.320813 66.136201  1
25.573830  25.669372 66.299156  1
25.229397  26.555020 67.511936  1
25.889331  27.933133 67.407111  1
23.704052  26.674412 67.791483  1
22.810605  27.342502 66.724079  1
22.654124  26.547476 65.426856  1
21.910841  27.251284 64.282243  1
22.535918  28.606106 63.937358  1
21.956726  26.344304 63.044029  1
25.102276  18.081267 61.821609  4
23.992622  19.130384 60.913698  4
23.853196  18.974355 62.679657  4
26.445829  20.031015 61.422961  4
23.190961  21.126265 63.036383  4
23.865324  22.691460 63.428436  4
24.183401  21.314703 64.500266  4
26.048902  23.012471 63.509205  4
26.328465  22.976437 61.813811  4
28.221998  21.411962 62.120454  4
27.912522  21.269635 63.844949  4
28.697272  23.845013 62.372023  4
29.808138  22.770330 63.187988  4
28.976065  23.269719 65.366835  4
29.282830  25.889677 63.816240  4
30.621767  24.812971 64.261077  4
29.679499  25.603466 65.520957  4
26.642014  23.515539 65.180948  4
26.767998  24.896974 64.042524  4
27.627511  26.246180 65.979989  4
27.445657  24.825772 67.033686  4
24.974427  24.756889 66.322552  4
25.353905  26.223778 65.388487  4
25.652721  26.053426 68.396323  4
25.173274  28.751522 67.525869  4
26.394944  28.082198 66.448641  4
26.640344  28.046321 68.196767  4
23.593977  27.264479 68.712328  4
23.298436  25.683528 68.032732  4
23.181618  28.351694 66.526882  4
21.809466  27.467781 67.159255  4
22.193297  25.578502 65.647993  4
23.620173  26.320804 65.001150  4
20.862369  27.398080 64.567562  4
22.136816  29.392159 64.586555  4
22.322681  28.895046 62.901600  4
23.625980  28.593458 64.056184  4
22.985971  26.250414 62.661234  4
21.340454  26.754914 62.243147  4
21.594089  25.339247 63.273430  4
33.363153  50.893490 66.415063  1
34.091822  51.709620 65.405626  1
33.692654  52.872349 64.864678  1
32.371022  53.539515 65.178729  1
34.524192  53.590170 63.840721  1
36.021724  53.789096 64.117470  1
36.713281  54.723161 63.104872  1
36.401142  56.247417 63.186062  1
37.128517  56.957825 62.040756  1
34.901965  56.602158 63.184073  1
34.546655  58.098857 63.099892  1
33.016989  58.237387 63.106864  1
32.481755  59.681529 63.064172  1
32.878648  60.389965 61.765599  1
30.953467  59.794744 63.329873  1
29.981810  59.131474 62.329923  1
30.010529  57.602269 62.322973  1
29.181934  56.910545 61.230774  1
29.555493  57.399695 59.828492  1
29.428502  55.397554 61.319986  1
34.077447  50.447530 67.112319  4
32.818668  50.091053 65.910370  4
32.661852  51.485821 67.002353  4
35.048548  51.287963 65.083475  4
31.604280  52.826434 65.492115  4
31.967138  54.053986 64.300579  4
32.504195  54.282473 65.975337  4
34.050896  54.554397 63.766607  4
34.378892  53.136383 62.852567  4
36.519452  52.811655 64.052413  4
36.194185  54.157852 65.134943  4
36.530421  54.347747 62.090473  4
37.797641  54.613344 63.264517  4
36.828011  56.614007 64.128387  4
36.688569  56.703400 61.073032  4
38.190449  56.681901 62.018454  4
37.084143  58.043767 62.164938  4
34.494706  56.301339 64.154945  4
34.394881  56.072910 62.377841  4
34.936937  58.517007 62.164638  4
34.991400  58.646754 63.936955  4
32.595872  57.709694 63.965151  4
32.723689  57.729255 62.189898  4
32.965858  60.219615 63.894260  4
32.020860  60.829153 61.247995  4
33.374268  59.718654 61.058327  4
33.573834  61.207579 61.986082  4
30.711065  60.866785 63.344702  4
30.731202  59.433959 64.342300  4
30.165487  59.534821 61.330634  4
28.963149  59.442965 62.599469  4
29.730535  57.229175 63.314225  4
31.013169  57.241776 62.147998  4
28.116927  57.100799 61.409137  4
29.000452  58.308958 59.575926  4
29.321202  56.648530 59.065204  4
30.625471  57.625924 59.747983  4
30.467539  55.150087 61.048229  4
28.769330  54.859300 60.637652  4
29.251403  55.024599 62.331821  4
65.721511  0.914447 -0.001330  1
66.628054  0.765100 0.393491  1
67.230420  1.543288 0.571164  1
66.926253  2.470828 0.354019  1
67.528628  3.249021 0.531696  1
67.224461  4.176561 0.314551  1
67.826827  4.954749 0.492224  1
67.522660  5.882289 0.275079  1
68.125035  6.660481 0.452755  1
67.820867  7.588021 0.235610  1
68.423234  8.366210 0.413283  1
68.119067  9.293750 0.196138  1
68.721442  10.071942 0.373814  1
68.417274  10.999482 0.156669  1
69.019641  11.777671 0.334342  1
68.715473  12.705211 0.117197  1
69.317849  13.483403 0.294873  1
69.013681  14.410943 0.077728  1
69.616048  15.189131 0.255401  1
69.311880  16.116671 0.038256  1
69.914255  16.894864 0.215933  1
69.610088  17.822404 -0.001212  1
35.163379  70.000550 10.891875  1
35.689500  69.278081 11.340468  1
36.119272  68.559500 10.793725  1
36.022924  68.563383 9.798381  1
36.452698  67.844797 9.251630  1
36.356348  67.848684 8.256295  1
36.786122  67.130098 7.709543  1
36.689772  67.133985 6.714208  1
37.119546  66.415399 6.167456  1
37.023196  66.419286 5.172121  1
37.452970  65.700701 4.625370  1
37.356620  65.704588 3.630034  1
37.786393  64.986002 3.083283  1
37.690044  64.989889 2.087948  1
38.119817  64.271303 1.541196  1
38.023468  64.275190 0.545861  1
38.453241  63.556604 -0.000890  1
38.024511  2.460498 5.052943  1
38.061173  2.023440 4.154258  1
38.711555  2.347052 3.467040  1
39.325282  3.107729 3.678504  1
39.975672  3.431348 2.991284  1
40.589392  4.192019 3.202751  1
41.239781  4.515637 2.515530  1
41.853501  5.276308 2.726998  1
42.503891  5.599927 2.039777  1
43.117611  6.360598 2.251245  1
43.768000  6.684216 1.564024  1
44.381720  7.444887 1.775492  1
45.032110  7.768506 1.088271  1
45.645829  8.529176 1.299739  1
46.296219  8.852795 0.612518  1
46.909939  9.613466 0.823985  1
47.560328  9.937084 0.136765  1
13.898697  47.780731 34.381284  1
14.797245  48.134538 35.534000  1
15.838519  49.042898 35.326736  1
16.653346  49.370183 36.392658  1
16.504327  48.869158 37.634793  3
15.502731  47.999111 37.847450  1
15.331182  47.497213 39.130826  1
14.309274  46.597653 39.442075  1
13.442307  46.172513 38.446341  1
13.595337  46.656718 37.147717  1
14.615488  47.583797 36.827460  1
14.163959  48.340237 33.477705  4
12.858817  48.025576 34.620671  4
13.981336  46.714715 34.146473  4
16.014139  49.494709 34.356259  4
17.473313  50.072735 36.274331  4
16.010824  47.823661 39.914524  4
14.197048  46.235599 40.460551  4
12.645630  45.470126 38.676879  4
12.904147  46.306628 36.385644  4
66.789939  36.652966 55.104554  1
66.601705  36.893894 56.568367  1
65.807447  37.930586 56.948997  3
65.612956  38.180052 58.262194  1
66.170493  37.447761 59.297065  1
66.993442  36.373326 58.931752  1
67.739558  35.395924 59.665353  1
67.934566  35.136145 61.037794  1
68.750907  34.067652 61.427086  1
69.369273  33.262615 60.473410  1
69.191759  33.498810 59.107313  1
68.372467  34.571624 58.736711  1
68.024988  35.030251 57.488814  3
68.341710  34.619175 56.623266  4
67.190379  36.120780 57.575231  1
66.232147  37.384305 54.511606  4
66.434870  35.652383 54.839535  4
67.849495  36.734459 54.843377  4
64.964747  39.026314 58.473585  4
65.976207  37.697972 60.332244  4
67.456943  35.757870 61.789070  4
68.902555  33.865748 62.484621  4
69.999999  32.436997 60.795460  4
69.675621  32.869531 58.367548  4
1.079683  2.272719 68.651868  1
1.795884  3.589219 68.655757  1
1.091520  4.782641 68.681031  1
1.788125  5.986246 68.829285  1
1.081996  7.198330 68.921927  1
1.750241  8.406596 69.176093  1
1.082643  9.622522 69.348150  1
1.690419  10.797174 69.638535  3
3.031866  10.767034 69.751280  1
3.796399  9.625910 69.573568  1
3.148750  8.416537 69.286371  1
3.857836  7.209286 69.136675  1
3.195821  5.971782 68.924730  1
3.830717  4.711746 68.826115  1
5.315452  4.521445 68.933195  1
3.142598  3.544793 68.709253  3
-0.000303  2.396275 68.524903  4
1.253523  1.764382 69.606305  4
1.451395  1.640530 67.840515  4
0.006956  4.772337 68.630856  4
-0.001175  7.198947 68.837160  4
0.000486  9.685390 69.273316  4
3.497650  11.716135 70.002643  4
4.875332  9.678682 69.679462  4
4.939240  7.240358 69.219657  4
5.890532  5.431992 68.756497  4
5.647674  3.791220 68.186643  4
5.564454  4.136552 69.927606  4
25.392321  17.460317 69.096105  1
24.069100  16.756434 69.094940  1
22.874990  17.462761 69.095870  1
21.635882  16.780302 69.094705  1
20.363200  17.426541 69.094418  1
20.261194  18.807840 69.095326  2
19.137685  16.731483 69.092570  1
17.959582  17.399551 69.091274  3
16.808532  16.701670 69.089129  1
16.750995  15.325437 69.088494  1
17.950160  14.613507 69.090084  1
17.895697  13.108368 69.089306  1
19.178695  15.325996 69.091990  1
20.434225  14.679599 69.092865  1
21.667773  15.370457 69.093216  1
22.932379  14.732164 69.091664  1
23.126811  13.240917 69.088708  1
24.106401  15.412599 69.092999  3
25.275601  18.548253 69.093187  4
25.964223  17.176026 68.207335  4
25.960584  17.180081 69.988479  4
22.931925  18.544765 69.097289  4
21.128395  19.226566 69.098603  4
15.904256  17.303008 69.087831  4
15.789045  14.824992 69.086700  4
16.864311  12.740833 69.087637  4
18.383547  12.709874 69.984918  4
18.386118  12.710693 68.194728  4
20.438963  13.595309 69.093010  4
22.205666  12.658849 69.077426  4
23.687933  12.946050 69.981607  4
23.703820  12.951952 68.203967  4
58.292204  5.490574 16.871574  1
58.615871  4.915143 18.261122  1
57.850380  5.717408 19.318428  1
58.257116  3.416105 18.313560  1
58.922578  2.518317 17.361061  3
60.210255  2.137730 17.158341  1
60.392946  1.131635 16.465576  2
61.390759  2.850704 17.846549  1
62.574509  3.038830 16.857983  1
62.163623  3.944041 15.688665  1
63.821020  3.640716 17.525007  1
61.760764  1.989170 18.968456  3
61.231603  1.972155 20.228187  1
61.396006  0.966163 20.913552  2
60.376972  3.162597 20.725120  1
60.755365  3.499280 22.195341  1
62.214815  3.951999 22.311928  1
59.852598  4.585873 22.793628  1
58.990720  2.699845 20.662674  3
58.076911  2.690607 19.664052  1
57.082797  1.974481 19.837099  2
58.556296  6.552219 16.817873  4
57.223531  5.402402 16.643883  4
58.850046  4.971478 16.085685  4
59.674587  5.093771 18.434714  4
56.769187  5.571096 19.226886  4
58.056470  6.788604 19.216664  4
58.150048  5.425512 20.328448  4
57.221345  3.404819 17.932201  4
58.295006  1.850519 16.921633  4
61.101116  3.823875 18.213890  4
62.865122  2.064892 16.443249  4
61.926277  4.956386 16.033850  4
61.288747  3.549838 15.163640  4
62.974845  4.019426 14.956207  4
63.583521  4.551884 18.084606  4
64.574443  3.902925 16.771712  4
64.289335  2.928056 18.211164  4
62.157399  1.085683 18.723229  4
60.504751  4.047406 20.109348  4
60.635274  2.600569 22.815910  4
62.391289  4.870803 21.743208  4
62.905521  3.185662 21.947918  4
62.472597  4.147875 23.358928  4
59.872870  5.498373 22.189064  4
60.182062  4.847829 23.805843  4
58.814867  4.246185 22.870370  4
58.737199  2.017103 21.371624  4
12.406660  2.006568 32.000141  1
13.643559  2.156197 31.097692  1
13.862839  0.843441 30.338687  1
13.459439  3.346819 30.134837  1
13.248255  4.676320 30.721306  3
13.999680  5.500907 31.495562  1
13.643774  6.681706 31.563182  2
15.300746  5.025741 32.171577  1
15.403135  5.576452 33.620767  1
14.259038  5.033145 34.487599  1
16.736537  5.228128 34.300244  1
16.381572  5.532947 31.327553  3
16.924846  4.953936 30.215428  1
17.550880  5.667747 29.436115  2
16.671214  3.456326 29.919919  1
17.988209  2.790458 29.429787  1
19.074327  2.827614 30.510300  1
17.776237  1.335048 28.993359  1
15.674997  3.433826 28.849041  3
14.322113  3.477709 28.861530  1
13.771648  3.728448 27.782103  2
12.532032  1.172157 32.698539  4
11.504376  1.811841 31.408833  4
12.234605  2.910425 32.593194  4
14.498322  2.285798 31.757620  4
13.051171  0.650490 29.629652  4
13.913221  -0.002271 31.033325  4
14.804254  0.861505 29.783209  4
12.467674  3.146254 29.693751  4
12.508562  5.208826 30.271652  4
15.348360  3.947980 32.216936  4
15.322002  6.671060 33.604398  4
14.326164  3.945232 34.598354  4
13.281640  5.271677 34.058353  4
14.290453  5.476271 35.489054  4
16.960074  4.157900 34.233705  4
16.709642  5.494190 35.364359  4
17.568301  5.781547 33.853131  4
16.494901  6.543184 31.309624  4
16.299715  2.921747 30.788598  4
18.368734  3.338233 28.556658  4
18.769886  2.263138 31.397694  4
19.303019  3.852317 30.817763  4
20.004893  2.388410 30.133236  4
17.337948  0.737147 29.798954  4
18.730141  0.872458 28.714394  4
17.119485  1.270960 28.120014  4
16.023187  3.717555 27.937294  4
10.301635  3.220135 49.604947  1
11.818260  3.352462 49.383447  1
12.447141  3.977708 50.632878  1
12.432400  1.973863 49.065850  1
11.932708  1.256187 47.886288  3
11.949791  1.500480 46.550591  1
11.710213  0.545440 45.804918  2
12.358254  2.871097 45.976033  1
11.426698  3.277079 44.800745  1
9.981108  3.442442 45.289074  1
11.861625  4.582056 44.116016  1
13.741470  2.706470 45.531701  3
14.884816  2.842147 46.267618  1
15.913203  2.320638 45.844273  2
14.843320  3.561294 47.637143  1
16.082786  4.489852 47.777104  1
16.078081  5.599009 46.719611  1
16.172791  5.133646 49.166726  1
14.904951  2.496559 48.638279  3
13.949332  1.728725 49.212387  1
14.343141  0.721631 49.813820  2
9.851877  4.195988 49.817427  4
10.079660  2.560770 50.452087  4
9.803751  2.813019 48.719148  4
11.954904  4.063457 48.571822  4
12.372523  3.308584 51.496285  4
11.946902  4.918009 50.889554  4
13.503316  4.207968 50.469726  4
12.040557  1.343738 49.883030  4
11.759849  0.268393 48.051452  4
12.306337  3.643372 46.728887  4
11.435322  2.489436 44.036179  4
9.895875  4.264733 46.008032  4
9.612542  2.531315 45.769137  4
9.312849  3.659343 44.448453  4
12.013036  5.390550 44.839339  4
11.099194  4.916840 43.401544  4
12.790193  4.446348 43.552670  4
13.883443  2.081719 44.742224  4
13.938740  4.146921 47.768154  4
16.997511  3.898125 47.634462  4
15.205755  6.250904 46.833038  4
16.070302  5.189556 45.705147  4
16.977268  6.218847 46.810679  4
15.263105  5.693713 49.406230  4
17.017441  5.830723 49.215666  4
16.330011  4.381710 49.946492  4
15.811457  2.045133 48.724777  4
59.690961  53.122945 13.119943  1
59.893949  53.189897 14.441729  1
58.775784  52.997965 15.457544  1
57.603617  52.028696 15.314853  1
56.670733  52.339562 14.255967  1
56.178249  53.736560 14.407813  1
55.318376  54.018397 13.107032  1
56.268213  53.714003 11.577114  1
56.600269  52.318436 11.004632  1
55.611528  51.112865 10.931704  1
54.789694  50.591589 12.152127  1
53.482906  51.294876 12.641341  1
53.574143  52.687403 13.155386  1
53.997461  54.000241 11.802086  1
54.987424  55.603028 11.921968  1
55.971917  56.383891 10.982349  1
56.647644  57.590971 11.669040  1
61.150095  53.663574 14.860718  2
61.635448  53.387446 16.190728  1
62.520320  52.096355 16.217474  1
63.929864  52.051983 15.610232  1
62.382564  54.591868 16.830879  1
61.652677  55.814856 17.197340  2
60.753816  55.828060 18.239087  1
60.208245  54.823669 18.672035  2
60.446925  57.270530 18.723158  1
60.698907  57.783362 20.182114  1
59.901258  57.238881 21.392776  1
60.292788  57.891016 22.751357  1
59.537668  57.375604 24.005563  1
59.671125  55.903812 24.415089  1
59.250763  54.752547 23.448813  1
57.964626  54.267316 22.738740  1
56.951226  54.568736 21.878824  1
56.296841  55.749586 21.143058  1
56.223562  55.819021 19.564905  1
55.360689  57.028946 19.043294  1
55.228825  57.117204 17.510857  1
54.467955  58.365249 17.005875  1
54.363008  58.531629 15.478470  1
55.691356  58.803759 14.773809  1
56.736740  57.705627 14.832905  1
58.736420  52.885596 12.702575  4
60.440502  53.373426 12.381315  4
58.367237  54.000058 15.628531  4
59.172412  52.641147 16.391832  4
56.983554  52.108525 16.218076  4
57.907757  50.992220 15.190661  4
55.885380  51.592833 14.283474  4
57.116735  52.182803 13.293983  4
56.942626  54.513605 14.331308  4
55.516961  53.912643 15.274915  4
54.900270  54.956537 13.770755  4
54.164859  54.340568 13.397978  4
57.168671  54.318482 11.560393  4
55.718234  54.083114 10.588495  4
57.470260  52.032564 11.551710  4
57.014671  52.481699 9.974914  4
56.283812  50.280528 10.670179  4
54.926882  51.209271 10.078016  4
55.498868  50.352521 12.947618  4
54.412427  49.596777 11.879531  4
53.072656  50.732461 13.502906  4
52.778085  51.434738 11.852305  4
54.284474  52.483092 13.981135  4
52.816406  53.103657 13.823794  4
53.245502  54.046161 10.974012  4
54.535376  53.014640 11.397222  4
55.980298  55.562662 12.626768  4
54.512134  56.306540 12.621139  4
55.326791  56.633852 10.179470  4
56.885161  55.880937 10.624416  4
55.895503  58.333773 11.906944  4
57.409626  58.015225 11.012462  4
57.221163  57.323416 12.558330  4
60.806837  53.187742 16.856750  4
61.953304  51.272702 15.768580  4
62.658408  51.843095 17.275924  4
63.993774  52.383280 14.570925  4
64.279517  51.006732 15.625412  4
64.653336  52.616965 16.208935  4
63.170836  54.921890 16.144847  4
62.873317  54.245258 17.746515  4
59.417535  57.498195 18.424725  4
61.076864  57.921099 18.097414  4
60.479114  58.860745 20.150845  4
61.766760  57.695922 20.408010  4
60.093134  56.175528 21.446305  4
58.828574  57.391983 21.246701  4
60.098758  58.974592 22.692745  4
61.374968  57.806448 22.920691  4
58.476002  57.621117 23.938412  4
59.919445  57.970849 24.858104  4
59.207637  55.766464 25.406927  4
60.744989  55.742888 24.637130  4
59.524665  53.868896 24.062671  4
60.021942  54.711960 22.680939  4
57.931319  53.183271 22.950561  4
56.344668  53.677606 21.655933  4
56.679449  56.692068 21.531305  4
55.240018  55.695630 21.450486  4
55.797398  54.896030 19.146926  4
57.239104  55.909080 19.160397  4
55.831848  57.957977 19.388448  4
54.348726  56.990235 19.452088  4
54.768001  56.221466 17.080973  4
56.252661  57.133843 17.186641  4
54.914454  59.279890 17.415141  4
53.444117  58.311568 17.393716  4
53.710657  59.398018 15.268019  4
53.848006  57.674830 15.026944  4
56.131748  59.728216 15.155548  4
55.461361  59.003633 13.723750  4
57.159617  57.497476 15.800748  4
57.632362  58.026333 14.299738  4
56.348618  56.766408 14.433925  4
8.847423  28.076899 33.951083  1
8.985556  28.208313 32.625769  1
7.811306  28.108403 31.661320  1
6.393692  28.608270 31.933941  1
5.679100  27.902232 32.972699  1
5.671321  26.442171 32.680526  1
5.029575  25.764881 33.961262  1
5.909598  26.224163 35.494270  1
5.790765  27.588843 36.207804  1
4.463290  28.378468 36.432818  1
3.446857  28.706318 35.294420  1
2.422652  27.654134 34.760048  1
2.942284  26.429231 34.095751  1
3.854302  25.213035 35.288752  1
5.312324  24.056172 34.973848  1
6.552211  23.566618 35.801417  1
7.550593  22.728629 34.973043  1
10.301727  28.227292 32.130634  2
10.591138  28.775944 30.828343  1
10.993358  30.285874 30.923006  1
12.340092  30.744131 31.500789  1
11.658490  27.960047 30.044964  1
11.357152  26.603513 29.563569  2
10.456081  26.387719 28.546285  1
9.583903  27.186205 28.237062  2
10.619230  24.979155 27.914970  1
10.943928  24.722411 26.403779  1
9.943103  25.079213 25.277082  1
10.451198  24.729388 23.847473  1
9.497595  25.077418 22.673417  1
9.110577  26.540121 22.423594  1
8.387061  27.385172 23.518226  1
7.055381  27.339217 24.304556  1
6.250529  26.633861 25.148342  1
6.068982  25.237311 25.765322  1
6.112892  24.997388 27.327778  1
5.732557  23.523800 27.733279  1
5.724972  23.250874 29.249523  1
5.452390  21.777494 29.632141  1
5.495832  21.440922 31.134304  1
6.876905  21.566069 31.776244  1
7.492544  22.952343 31.814292  1
7.893664  27.938205 34.412370  4
9.678348  28.024255 34.641674  4
7.750154  27.048373 31.391254  4
8.012884  28.665115 30.763007  4
5.785113  28.410725 31.041041  4
6.342460  29.669818 32.163501  4
4.689935  28.340030 33.043589  4
6.101585  28.107660 33.936135  4
6.653607  25.964247 32.655490  4
5.057992  26.137138 31.813949  4
4.910121  24.808444 33.208662  4
4.034225  25.102457 33.662064  4
6.959212  25.959401 35.425638  4
5.570836  25.599142 36.448563  4
6.483585  28.201583 35.676343  4
6.293759  27.477386 37.204438  4
4.834314  29.359630 36.768687  4
3.899405  27.976432 37.285589  4
3.989710  29.244720 34.514472  4
2.776453  29.485332 35.681701  4
1.800423  28.124917 33.973852  4
1.850543  27.210751 35.544277  4
3.496061  26.938341 33.281925  4
2.329319  25.847823 33.402612  4
3.208806  24.838074 36.123017  4
4.056032  26.278903 35.786656  4
6.193477  24.495295 34.256273  4
5.059011  23.303664 34.212774  4
6.073694  23.038869 36.586137  4
7.265075  24.311145 36.192056  4
7.075967  21.802215 34.672118  4
8.446338  22.525189 35.562923  4
7.950934  23.256981 34.105912  4
9.706793  28.747492 30.206101  4
10.211267  30.823890 31.470993  4
10.978914  30.670358 29.895636  4
12.569551  30.356360 32.496271  4
12.320857  31.842486 31.591806  4
13.174939  30.515368 30.828659  4
12.549328  27.850932 30.673795  4
11.953131  28.537106 29.162039  4
9.742851  24.390954 28.209105  4
11.464162  24.522186 28.452453  4
11.097010  23.636137 26.322445  4
11.907266  25.185292 26.165651  4
9.767137  26.145065 25.335373  4
8.992505  24.560790 25.428845  4
10.632147  23.643383 23.792082  4
11.432197  25.189017 23.664936  4
8.583605  24.483645 22.736455  4
10.006391  24.729442 21.753127  4
8.572145  26.607171 21.462853  4
10.055361  27.073498 22.197158  4
8.316177  28.363620 22.998322  4
9.143244  27.609706 24.269069  4
6.651543  28.363717 24.212660  4
5.395918  27.243290 25.479917  4
6.720433  24.520125 25.268680  4
5.038665  24.961367 25.488555  4
5.428610  25.678821 27.852793  4
7.121876  25.216374 27.697994  4
6.465349  22.844923 27.279007  4
4.743771  23.258324 27.353141  4
5.017800  23.893976 29.784156  4
6.712783  23.549074 29.547747  4
6.153534  21.109898 29.116252  4
4.448640  21.520049 29.274713  4
5.181753  20.389647 31.263365  4
4.751836  22.027248 31.687385  4
7.577130  20.884603 31.286776  4
6.786600  21.201459 32.803072  4
7.766352  23.381811 30.865895  4
8.472644  22.902642 32.289888  4
6.837597  23.663594 32.321368  4
28.467112  6.829726 37.628334  1
29.452546  6.867502 36.722631  1
29.249537  7.387334 35.305744  1
28.340915  8.549309 34.908201  1
26.926340  8.317446 35.090870  1
26.521113  7.071405 34.383500  1
25.012521  6.827029 34.802156  1
24.804386  6.768334 36.615642  1
24.820212  7.999294 37.548428  1
24.117553  9.362452 37.257918  1
24.300765  10.166231 35.932419  1
23.541802  9.794601 34.618073  1
23.815410  8.475961 33.987183  1
23.172283  6.966196 35.007554  1
23.870922  5.221022 35.179595  1
23.967756  4.162493 36.333716  1
24.816837  2.926795 35.963167  1
30.643578  6.201458 37.062712  2
31.881625  6.518033 36.393565  1
32.692703  7.602157 37.179350  1
33.398843  7.298771 38.508579  1
32.756536  5.265656 36.102541  1
32.319152  4.259656 35.123057  2
32.283583  4.538836 33.776151  1
32.224315  5.672683 33.323634  2
32.227211  3.247591 32.916654  1
33.298168  2.856230 31.841976  1
33.495868  3.676733 30.543478  1
34.598782  3.111018 29.601213  1
34.854214  3.899464 28.288964  1
35.343974  5.350759 28.363597  1
34.510149  6.450906 29.091759  1
33.113161  7.102593 28.959375  1
31.763063  6.917553 28.942515  1
30.691299  5.817968 28.863689  1
29.631966  5.593711 30.016199  1
28.532330  4.530565 29.640606  1
27.455102  4.304603 30.718597  1
26.441226  3.185820 30.384043  1
25.381103  2.878957 31.458118  1
25.935573  2.272917 32.746678  1
26.873916  3.140653 33.564456  1
27.488846  7.205709 37.420219  4
28.556135  6.356357 38.596901  4
28.955479  6.511268 34.717206  4
30.176314  7.757231 34.903515  4
28.426812  8.693046 33.822557  4
28.587099  9.484732 35.404774  4
26.403807  9.204109 34.750390  4
26.675946  8.276924 36.132294  4
26.993896  6.154076 34.742539  4
26.544047  7.125687 33.280458  4
25.027906  6.068613 33.842981  4
24.279610  6.774548 33.812644  4
25.434802  5.998461 37.047348  4
23.724087  6.411110 36.964112  4
25.860879  8.163811 37.715310  4
24.474799  7.646034 38.555702  4
24.542796  10.010838 38.040165  4
23.042510  9.312286 37.478337  4
25.370376  10.344142 35.801400  4
23.924661  11.180680 36.121439  4
23.818990  10.517542 33.825966  4
22.488267  9.713145 34.767545  4
24.901996  8.623073 33.826360  4
23.617608  8.293980 32.927956  4
22.065965  6.981385 35.178110  4
23.416834  7.775060 35.850531  4
25.084477  5.139069 35.248435  4
23.885097  4.706357 34.207696  4
22.941867  3.960416 36.506922  4
24.489018  4.431630 37.266961  4
24.322960  2.378953 35.169427  4
24.952124  2.290606 36.839903  4
25.843678  3.169645 35.683940  4
31.681406  6.949817 35.422207  4
32.044152  8.468569 37.352928  4
33.489716  7.936156 36.503524  4
32.762728  6.850617 39.275728  4
33.768885  8.248798 38.927571  4
34.285090  6.669384 38.368932  4
32.901683  4.712813 37.037540  4
33.743150  5.604843 35.769507  4
31.225881  3.198487 32.474540  4
32.260530  2.420626 33.642353  4
33.015199  1.847301 31.507266  4
34.271088  2.753233 32.333710  4
33.770168  4.679974 30.841253  4
32.563921  3.725403 29.973798  4
34.317848  2.087960 29.301802  4
35.546761  2.996233 30.144443  4
33.972553  3.864499 27.646025  4
35.634936  3.336194 27.741154  4
35.625389  5.684446 27.350242  4
36.325495  5.317715 28.877316  4
35.185906  7.323585 28.971469  4
34.622737  6.253539 30.156824  4
33.315781  8.188006 29.003572  4
31.232685  7.882079 28.932783  4
31.149128  4.865969 28.600084  4
30.076071  6.114345 27.998847  4
29.120105  6.532175 30.272163  4
30.150927  5.259860 30.922999  4
29.032327  3.569356 29.466536  4
28.014358  4.814158 28.721934  4
26.906646  5.222135 30.956998  4
28.037568  4.049319 31.584158  4
26.963976  2.250493 30.148833  4
25.902175  3.484084 29.477397  4
24.670125  2.142230 31.043118  4
24.773847  3.767007 31.672163  4
26.435377  1.326260 32.526844  4
25.077714  2.010127 33.371570  4
27.829151  3.364170 33.121243  4
27.199129  2.592088 34.449087  4
26.404774  4.089408 33.832277  4
30.255748  17.894485 34.217490  1
31.235649  18.149740 35.093529  1
30.982742  18.321164 36.585394  1
29.949419  17.550149 37.404904  1
28.569641  17.827728 37.077316  1
28.313845  19.292374 37.158441  1
26.840725  19.488641 36.608678  1
26.630098  18.775933 34.940392  1