NumberOfAtoms 504
SpinPolarized yes
#FixSpin .true.
#TotalSpin 
NumberOfSpecies 4

 
MD.TypeOfRun  nose
MD.FinalTimeStep 21
MD.LengthTimeStep 0.5  fs
MD.InitialTemperature 300 K 
MD.TargetTemperature  300  K


%block ChemicalSpeciesLabel
1  6  C
2  1  H
3  8  O
4  7  N
%endblock ChemicalSpeciesLabel

PAO.BasisSize szp 
 PAO.EnergyShift 0.02 Ry 
 
MeshCutoff          100 Ry
MaxSCFIterations    100  
DM.NumberPulay       3  
DM.Tolerance         1e-3
WriteDenchar	.true.

%block ProjectedDensityOfStates
-10.0 10.0 0.200 500 eV
%endblock ProjectedDensityOfStates
NetCharge 0.00

%block BandLines
1  1.000  1.000 1.000  L
20 0.00   0.00   0.00  \Gamma
25 2.00   0.000  0.00  X
30 2.00   2.00   2.00  \Gamma
%endblock BandLines


LongOutput .true.
WriteCoorXmol .true.
LatticeConstant 1 Ang
%block LatticeVectors
  47.993079 0.0 0.0
  0.0 46.512061 0.0
  0.0 0.0 47.750349
%endblock LatticeVectors


 

#UseSaveData .true.  
%block kgrid_Monkhorst_Pack
1 0 0 0.0 
 0 1 0 0.0 
 0 0 1 0.0 

%endblock kgrid_Monkhorst_Pack
WriteMDXmol .true.
AtomicCoordinatesFormat Ang
%block AtomicCoordinatesAndAtomicSpecies
39.058938  12.069706 1.209966  1 
37.868802  11.374035 1.771758  1 
37.834626  10.153597 2.331455  1 
39.038667  9.243915 2.446409  1 
36.555804  9.561718 2.850592  1 
35.659235  10.423213 3.752121  1 
34.498464  9.637078 4.392968  1 
34.839032  8.632650 5.534248  1 
33.553122  7.914916 5.954690  1 
35.945176  7.616056 5.193134  1 
36.203336  6.503581 6.227151  1 
37.329715  5.601575 5.701058  1 
37.745533  4.447773 6.633624  1 
36.596129  3.459399 6.851994  1 
39.046558  3.718841 6.191955  1 
39.048211  2.970362 4.841504  1 
38.964982  3.869890 3.607298  1 
38.798183  3.158970 2.256475  1 
37.586771  2.222190 2.244891  1 
38.622209  4.225269 1.165635  1 
38.996778  13.139148 1.428353  2 
39.081642  11.934398 0.125411  2 
39.993930  11.704843 1.634527  2 
36.934789  11.939182 1.700121  2 
39.785352  9.435118 1.671496  2 
38.753379  8.192046 2.340905  2 
39.513172  9.369571 3.427920  2 
36.886916  8.700974 3.406218  2 
35.970281  9.144852 2.021816  2 
35.214798  11.220034 3.139823  2 
36.241749  10.921996 4.534980  2 
33.925388  9.138421 3.601575  2 
33.811896  10.383516 4.822897  2 
35.184493  9.224250 6.391714  2 
33.204089  7.235629 5.172692  2 
32.752481  8.634884 6.166706  2 
33.711123  7.335833 6.869217  2 
36.893795  8.162419 5.169593  2 
35.745035  7.158546 4.224694  2 
35.295833  5.901599 6.353354  2 
36.470720  6.935387 7.197054  2 
38.203065  6.203649 5.441784  2 
36.898755  5.179748 4.794755  2 
37.979062  4.902277 7.609241  2 
36.885389  2.425875 6.640432  2 
35.726382  3.686005 6.228521  2 
36.270011  3.494097 7.897380  2 
39.273921  2.974307 6.967987  2 
39.886271  4.425222 6.214015  2 
38.247230  2.226432 4.843172  2 
39.987374  2.403724 4.776351  2 
39.831910  4.539354 3.586589  2 
38.100221  4.513959 3.664057  2 
39.704371  2.582182 2.036500  2 
37.853668  1.240525 2.649512  2 
37.208500  2.067013 1.227747  2 
36.759417  2.619359 2.845104  2 
37.669073  4.764372 1.290500  2 
38.617300  3.766369 0.176094  2 
39.428096  4.962740 1.196502  2 
17.303113  35.983028 37.422955  1 
17.314670  36.979808 37.502351  1 
16.462576  37.478698 37.660577  1 
15.598921  36.980817 37.739408  1 
14.746823  37.479716 37.897636  1 
13.883168  36.981835 37.976467  1 
13.031074  37.480725 38.134693  1 
12.167419  36.982844 38.213524  1 
11.315321  37.481743 38.371751  1 
10.451665  36.983862 38.450582  1 
9.599572  37.482752 38.608808  1 
8.735917  36.984871 38.687639  1 
7.883818  37.483770 38.845867  1 
7.020163  36.985888 38.924698  1 
6.168070  37.484779 39.082924  1 
5.304415  36.986898 39.161755  1 
4.452316  37.485797 39.319982  1 
3.588661  36.987915 39.398813  1 
2.736567  37.486806 39.557039  1 
1.872912  36.988924 39.635870  1 
1.020814  37.487823 39.794097  1 
0.157159  36.989942 39.872928  1 
35.668747  33.304597 8.438237  1 
35.874955  33.773074 9.846915  1 
35.015128  34.687945 10.437261  1 
35.226386  35.118056 11.768243  1 
34.392428  36.053192 12.451893  1 
33.288461  36.615061 11.832254  3 
34.616649  36.470718 13.778692  1 
33.789560  37.361133 14.376461  4 
34.035090  37.736502 15.645622  1 
35.093962  37.264319 16.389370  1 
35.960904  36.346517 15.797007  1 
37.121100  35.825395 16.603721  1 
35.723893  35.933751 14.458951  1 
36.553870  35.008419 13.788813  1 
36.334154  34.583822 12.458262  1 
37.158774  33.654645 11.777614  1 
38.371311  33.000263 12.380248  1 
36.932346  33.259669 10.499316  4 
34.787759  33.764387 7.980316  2 
35.532881  32.218704 8.424835  2 
36.542384  33.560516 7.830741  2 
34.186186  35.053443 9.842918  2 
33.187980  36.294353 10.929796  2 
33.330957  38.452114 16.059654  2 
35.234542  37.608297 17.408052  2 
37.140045  36.256211 17.610140  2 
38.068064  36.084664 16.119000  2 
37.049333  34.738423 16.714492  2 
37.401449  34.609386 14.334789  2 
38.580760  33.284848 13.411064  2 
39.254818  33.255147 11.785669  2 
38.242709  31.912882 12.363813  2 
28.081197  9.229624 10.321316  1 
27.224994  8.884363 11.551939  1 
27.713287  7.554725 12.136008  1 
27.299309  10.023449 12.589017  1 
26.853651  11.359292 12.173051  4 
25.663542  11.881428 11.779261  1 
25.562444  13.112354 11.790532  3 
24.452468  10.990194 11.440804  1 
23.712269  11.519221 10.181377  1 
24.629286  11.463032 8.951962  1 
22.429028  10.734349 9.867935  1 
23.596258  11.036707 12.625100  4 
23.665573  10.258529 13.746197  1 
23.122493  10.665472 14.770030  3 
24.485856  8.946541 13.728505  1 
23.698898  7.828654 14.469526  1 
22.377120  7.507521 13.763611  1 
24.513413  6.535498 14.603446  1 
25.719983  9.248897 14.453243  4 
26.900053  9.783364 14.060616  1 
27.650614  10.177145 14.962083  3 
28.024778  8.433545 9.571120  2 
29.135665  9.355343 10.593290  2 
27.741045  10.155410 9.846457  2 
26.212368  8.717925 11.191650  2 
28.724675  7.644682 12.545602  2 
27.728301  6.775328 11.366201  2 
27.051466  7.207679 12.933940  2 
28.386776  10.181946 12.692338  2 
27.475450  12.107665 12.466652  2 
24.756008  9.971727 11.249803  2 
23.423488  12.566662 10.337875  2 
24.897931  10.430441 8.703141  2 
25.553431  12.025288 9.114077  2 
24.131720  11.901163 8.079765  2 
22.610103  9.654596 9.834329  2 
22.022200  11.031320 8.893178  2 
21.650598  10.929427 10.612250  2 
23.163875  11.934699 12.826098  2 
24.714785  8.616904 12.719882  2 
23.458989  8.167114 15.486923  2 
22.550615  7.126318 12.751994  2 
21.733190  8.389031 13.691893  2 
21.820483  6.745607 14.320992  2 
24.842950  6.168942 13.625894  2 
23.912413  5.746969 15.071170  2 
25.397220  6.682766 15.232223  2 
25.609396  9.352026 15.458308  2 
1.967197  26.381387 4.558265  1 
2.692211  25.334803 4.972779  1 
3.616253  25.399868 6.181465  1 
3.350327  26.191795 7.460509  1 
3.348894  27.628766 7.307988  1 
4.620596  28.072710 6.673253  1 
4.428332  29.620653 6.394421  1 
2.931264  29.958988 5.404566  1 
1.485116  29.919343 5.945572  1 
1.017039  30.499270 7.317037  1 
1.704236  30.165899 8.678358  1 
3.029189  30.855886 9.136680  1 
4.261058  30.635068 8.333289  1 
4.218280  31.455817 6.584375  1 
4.990602  30.899284 4.954309  1 
4.578548  30.960498 3.441590  1 
5.534240  30.179360 2.513329  1 
2.736010  24.221932 4.114044  3 
3.106987  22.920379 4.613117  1 
1.847139  22.089881 5.029872  1 
0.871224  21.502420 4.000307  1 
4.003845  22.120322 3.626120  1 
5.377984  22.559801 3.340937  3 
6.367967  22.480622 4.293316  1 
6.146047  22.425710 5.493995  3 
7.785206  22.570110 3.666697  1 
8.880476  21.457710 3.800846  1 
9.535622  21.110603 5.160518  1 
10.611446  19.988321 5.074490  1 
11.294147  19.585136 6.408751  1 
10.445848  18.997900 7.543314  1 
9.259997  19.798731 8.166397  1 
9.052566  21.132096 8.923304  1 
9.193432  22.487551 8.909588  1 
9.869404  23.628039 8.130920  1 
9.036918  24.778949 7.435843  1 
9.944819  25.923742 6.847871  1 
9.176594  27.087360 6.192610  1 
10.077760  28.153738 5.527568  1 
9.355702  29.305928 4.804551  1 
8.578929  28.888453 3.556573  1 
7.404996  27.949263 3.761554  1 
1.962409  27.312843 5.081760  2 
1.399591  26.394963 3.637524  2 
4.587629  25.714713 5.784426  2 
3.739566  24.422829 6.614726  2 
4.189341  26.019885 8.148379  2 
2.425960  25.913838 7.961001  2 
3.173840  28.060524 8.286804  2 
2.495511  27.953758 6.746719  2 
4.797367  27.693971 5.663682  2 
5.523388  27.968707 7.301206  2 
5.643752  29.593145 6.262345  2 
5.307750  30.284335 6.946865  2 
2.964617  29.417822 4.465138  2 
2.849776  31.084084 5.025613  2 
1.234786  28.883738 5.893035  2 
0.829587  30.359147 5.148353  2 
0.000851  30.083978 7.406711  2 
0.879667  31.587911 7.264055  2 
1.697932  29.079663 8.792104  2 
1.010402  30.479793 9.469784  2 
3.306822  30.472232 10.137999  2 
2.968049  31.920428 9.092815  2 
4.296043  29.532089 8.435211  2 
5.257550  30.770872 8.760799  2 
4.088788  32.567345 6.615951  2 
3.068772  31.212918 6.794869  2 
4.951216  29.702670 4.729063  2 
6.086613  30.854420 5.034407  2 
4.561203  32.007940 3.280821  2 
3.635323  30.487741 3.122334  2 
6.507853  30.654843 2.521205  2 
5.130258  30.152277 1.499539  2 
5.619394  29.120590 2.764526  2 
3.701451  23.020253 5.511282  2 
1.251030  22.684483 5.731670  2 
2.223532  21.225386 5.590677  2 
0.475307  22.221507 3.279082  2 
0.002076  21.094743 4.541988  2 
1.307167  20.656527 3.456725  2 
3.505902  22.081468 2.650686  2 
4.083848  21.090822 3.990944  2 
8.205701  23.538937 3.958408  2 
7.612868  22.647726 2.582310  2 
9.708059  21.788929 3.156300  2 
8.499865  20.531648 3.357529  2 
8.742472  20.785834 5.820701  2 
10.010283  21.994379 5.595336  2 
11.416701  20.321012 4.399137  2 
10.194123  19.091534 4.596418  2 
11.874360  20.419814 6.806979  2 
12.041916  18.810853 6.147554  2 
11.118288  18.622762 8.333582  2 
10.009118  18.059751 7.146421  2 
8.881653  19.054735 8.898525  2 
8.462935  19.775614 7.424675  2 
8.431318  20.854927 9.794142  2 
8.697415  22.944632 9.779502  2 
10.591239  23.223087 7.423555  2 
10.454707  24.158084 8.899536  2 
8.329883  25.238105 8.141187  2 
8.438150  24.350336 6.622927  2 
10.595034  25.483774 6.081144  2 
10.580443  26.354182 7.624648  2 
8.496334  27.583212 6.893241  2 
8.569410  26.586983 5.461458  2 
10.765356  27.684974 4.812794  2 
10.695819  28.604928 6.312409  2 
10.114569  30.037622 4.474057  2 
8.712985  29.860711 5.499056  2 
9.260052  28.444417 2.826373  2 
8.208802  29.804756 3.088742  2 
7.640545  26.951651 4.090428  2 
6.943631  27.727424 2.798648  2 
6.681563  28.366001 4.465068  2 
29.735095  32.460108 38.390832  1 
28.774722  32.213450 38.261019  1 
28.532051  31.293939 37.951808  1 
29.249752  30.621088 37.772409  1 
29.007080  29.701578 37.463198  1 
29.724772  29.028729 37.283799  1 
29.482100  28.109219 36.974588  1 
30.199802  27.436368 36.795189  1 
29.957130  26.516858 36.485978  1 
30.674822  25.844009 36.306579  1 
30.432150  24.924499 35.997368  1 
31.149851  24.251647 35.817969  1 
30.907180  23.332137 35.508758  1 
31.624881  22.659286 35.329359  1 
31.382209  21.739776 35.020148  1 
32.099901  21.066927 34.840749  1 
31.857229  20.147417 34.531538  1 
32.574930  19.474565 34.352139  1 
32.332259  18.555055 34.042928  1 
33.049950  17.882206 33.863529  1 
32.807279  16.962696 33.554318  1 
33.524980  16.289845 33.374919  1 
33.282308  15.370335 33.065708  1 
34.000000  14.697486 32.886310  1 
33.757328  13.777976 32.577098  1 
34.475030  13.105124 32.397700  1 
34.232358  12.185614 32.088488  1 
34.950050  11.512766 31.909090  1 
34.707378  10.593255 31.599878  1 
35.425079  9.920404 31.420480  1 
35.182408  9.000894 31.111268  1 
35.900099  8.328045 30.931870  3 
34.485343  16.536506 33.504732  3 
35.203045  15.863655 33.325334  1 
34.960373  14.944145 33.016122  1 
35.678064  14.271296 32.836724  1 
35.435393  13.351786 32.527512  1 
36.153094  12.678934 32.348114  1 
35.910422  11.759424 32.038902  1 
36.628114  11.086575 31.859504  1 
36.385442  10.167065 31.550292  1 
37.103144  9.494214 31.370894  1 
36.860472  8.574704 31.061682  1 
37.578164  7.901855 30.882284  1 
37.335492  6.982345 30.573073  1 
38.053193  6.309493 30.393674  1 
37.810522  5.389983 30.084463  1 
38.528223  4.717132 29.905064  1 
38.285551  3.797622 29.595852  1 
39.003243  3.124773 29.416454  1 
38.760571  2.205263 29.107243  1 
39.478272  1.532412 28.927844  1 
39.235601  0.612901 28.618633  1 
39.953292  -0.059947 28.439234  1 
36.163408  16.110316 33.455146  1 
36.881109  15.437465 33.275748  3 
36.406079  17.029826 33.764358  1 
37.366452  17.276485 33.894170  1 
38.084144  16.603636 33.714772  1 
37.841472  15.684126 33.405561  1 
38.559173  15.011275 33.226162  1 
38.316502  14.091764 32.916950  1 
39.034193  13.418916 32.737552  1 
38.791522  12.499405 32.428341  1 
39.509223  11.826554 32.248942  1 
39.266551  10.907044 31.939731  3 
9.673510  15.975267 36.472353  1 
10.870463  16.669879 35.843820  1 
11.749181  17.338412 36.901533  1 
12.959496  18.067371 36.311165  1 
14.003415  17.180190 35.663764  1 
13.888828  16.989990 34.274933  1 
14.720448  16.158530 33.501144  1 
15.773212  15.483960 34.160282  1 
15.899160  15.687584 35.565400  1 
15.040582  16.519061 36.330433  1 
15.250785  16.594360 37.828888  1 
15.682812  17.947998 38.384056  1 
16.641255  14.652026 33.425303  1 
17.652350  14.013827 34.048214  4 
18.466406  13.243829 33.297539  1 
19.590765  12.486608 33.704624  1 
20.104453  11.871093 32.583904  1 
19.324063  12.232043 31.515013  4 
19.470333  11.929553 30.561759  2 
18.314753  13.069587 31.928218  1 
17.266044  13.709260 31.247313  1 
17.065741  13.558609 29.862497  1 
16.005360  14.221556 29.245860  1 
15.144172  15.032355 29.994855  1 
14.069079  15.693886 29.389535  1 
13.229976  16.459378 30.179835  1 
12.054159  17.205786 29.577206  1 
10.817407  17.396712 30.494144  1 
11.087440  18.264263 31.722926  1 
9.669129  18.050388 29.721112  1 
13.471147  16.625204 31.496569  4 
14.500541  16.001824 32.118501  1 
15.354970  15.184309 31.388378  1 
16.422800  14.516972 32.035342  1 
8.997147  15.611947 35.692491  2 
9.113039  16.655179 37.121445  2 
9.995492  15.115862 37.069234  2 
10.517362  17.423328 35.130013  2 
11.443660  15.927107 35.280089  2 
12.069435  16.602212 37.646702  2 
11.141602  18.081809 37.435460  2 
13.404853  18.677554 37.092947  2 
12.610583  18.808709 35.578674  2 
13.087417  17.521810 33.774259  2 
16.701494  15.155427 36.082481  2 
16.024111  15.871674 38.120559  2 
14.336427  16.256078 38.329012  2 
16.653418  18.252199 37.982798  2 
15.762969  17.888618 39.474867  2 
14.983444  18.756028 38.173766  2 
19.976564  12.408307 34.710941  2 
20.952731  11.212418 32.454852  2 
17.716492  12.933592 29.259278  2 
15.856068  14.094321 28.175697  2 
13.888790  15.604557 28.323065  2 
11.722273  16.649414 28.689165  2 
12.413842  18.179235 29.221484  2 
10.480338  16.409950 30.837803  2 
11.580473  19.204451 31.457967  2 
11.707148  17.734757 32.433625  2 
10.167553  18.488669 32.270958  2 
9.969075  19.025328 29.321334  2 
8.807102  18.212486 30.379259  2 
9.339268  17.420331 28.890980  2 
22.586463  18.151528 4.777204  1 
22.035860  19.460323 4.775936  1 
22.911029  20.561285 4.570851  1 
24.287039  20.392787 4.406276  1 
24.805348  19.102612 4.526350  1 
23.992642  17.943152 4.692303  1 
21.725477  17.024768 4.873731  1 
20.348713  17.264570 5.088148  1 
19.836457  18.500110 5.140319  4 
20.638103  19.582919 4.960958  1 
24.529716  16.611896 4.765983  1 
23.651346  15.492940 4.783018  1 
22.233878  15.709471 4.797285  1 
21.288540  14.648850 4.786577  1 
19.931656  14.855103 5.039965  1 
19.505498  16.165290 5.301665  1 
19.002081  13.650441 5.187351  1 
17.733539  13.951437 6.020446  1 
17.853854  15.197103 6.910630  1 
18.161745  16.379237 5.968746  1 
25.928429  16.341946 4.850633  1 
26.477058  15.056357 4.980153  1 
25.601840  13.983840 4.956972  1 
24.228752  14.196405 4.847675  1 
19.884138  20.906837 4.958116  1 
19.175254  21.244650 6.291681  1 
20.177047  21.374680 7.439304  1 
18.374748  22.551724 6.193033  1 
25.189533  21.572716 4.069895  1 
25.403728  21.768884 2.549532  1 
26.324907  22.959722 2.169562  1 
27.749787  22.808727 2.706694  1 
26.384711  23.167483 0.646806  1 
18.886387  15.012731 8.053584  1 
19.012485  16.229159 8.981469  1 
20.064065  16.032617 10.078700  1 
19.755228  14.864091 11.000759  1 
18.623634  13.075535 3.801061  1 
17.842964  11.765748 3.869790  1 
26.094046  12.718068 5.086424  3 
27.965491  14.883189 5.180374  1 
28.746038  14.784789 3.868581  1 
30.242275  14.620185 4.107913  1 
22.525820  21.574455 4.535692  2 
25.885521  19.003234 4.458711  2 
21.607478  13.622077 4.655474  2 
19.564127  12.882784 5.738361  2 
17.464808  13.069348 6.616038  2 
16.883275  14.116958 5.343502  2 
16.874745  15.369223 7.376645  2 
18.151622  17.301275 6.557993  2 
17.385019  16.479283 5.202714  2 
26.639662  17.167649 4.873620  2 
23.592188  13.317204 4.857387  2 
19.131084  20.842587 4.160053  2 
20.525269  21.743950 4.674672  2 
18.467174  20.442517 6.536404  2 
20.894826  22.178433 7.242303  2 
20.733630  20.445784 7.590159  2 
19.660918  21.605669 8.377297  2 
19.025462  23.406747 5.977425  2 
17.864231  22.760145 7.141515  2 
17.608805  22.499266 5.412973  2 
26.149341  21.429515 4.580218  2 
24.754181  22.485550 4.493579  2 
24.423230  21.933857 2.083199  2 
25.800742  20.845315 2.108356  2 
25.900766  23.874866 2.600545  2 
28.202266  21.863316 2.389931  2 
27.764673  22.853304 3.798970  2 
28.390344  23.622552 2.345462  2 
26.731009  22.270113 0.122579  2 
27.072820  23.983629 0.391015  2 
25.402161  23.439720 0.247775  2 
19.883628  14.784227 7.662360  2 
18.589365  14.134421 8.637199  2 
18.040589  16.450992 9.437000  2 
19.305669  17.115167 8.406946  2 
20.125590  16.949872 10.677049  2 
21.051504  15.886870 9.624267  2 
18.755402  14.962944 11.434671  2 
20.482152  14.821716 11.817108  2 
19.808741  13.910356 10.467661  2 
19.525151  12.902273 3.200376  2 
18.026035  13.812704 3.249042  2 
18.462747  10.961931 4.279006  2 
17.522741  11.465645 2.866007  2 
16.943206  11.853226 4.485647  2 
25.350992  12.096323 5.164032  2 
28.155939  13.999516 5.802077  2 
28.339076  15.732312 5.768109  2 
28.582518  15.687616 3.268580  2 
28.384529  13.936638 3.275599  2 
30.642096  15.442189 4.710769  2 
30.778831  14.612224 3.153280  2 
30.460516  13.679126 4.623371  2 
 %endblock AtomicCoordinatesAndAtomicSpecies

