NumberOfAtoms 2605
SpinPolarized yes
#FixSpin .true.
#TotalSpin 
NumberOfSpecies 4

 


%block ChemicalSpeciesLabel
1  6  c
2  1  h
3  7  n
4  8  o
%endblock ChemicalSpeciesLabel

PAO.BasisSize szp 
 PAO.EnergyShift 0.02 Ry 
 
MeshCutoff          100 Ry
MaxSCFIterations    100  
DM.NumberPulay       3  
DM.Tolerance         1e-3
WriteDenchar	.true.

%block ProjectedDensityOfStates
-10.0 10.0 0.200 500 eV
%endblock ProjectedDensityOfStates
NetCharge 0.00

%block BandLines
1  1.000  1.000 1.000  L
20 0.00   0.00   0.00  \Gamma
25 2.00   0.000  0.00  X
30 2.00   2.00   2.00  \Gamma
%endblock BandLines


LongOutput .true.
WriteCoorXmol .true.
LatticeConstant 1 Ang
%block LatticeVectors
  58.069503 0.0 0.0
  0.0 57.444559 0.0
  0.0 0.0 57.999872
%endblock LatticeVectors


 

#UseSaveData .true.  
%block kgrid_Monkhorst_Pack
1 0 0 0.0 
 0 1 0 0.0 
 0 0 1 0.0 

%endblock kgrid_Monkhorst_Pack
WriteMDXmol .true.
AtomicCoordinatesFormat Ang
%block AtomicCoordinatesAndAtomicSpecies
5.374561  25.916676 7.421979  1 
6.651904  25.816814 6.664079  1 
7.176280  24.714257 6.104351  1 
6.546640  23.340993 6.194631  1 
8.487704  24.750633 5.373561  1 
8.720080  25.857045 4.334033  1 
10.002959  25.657552 3.503066  1 
10.012022  24.523662 2.434611  1 
11.404233  24.460402 1.799613  1 
9.586895  23.138251 2.957371  1 
9.734899  21.956326 1.980342  1 
9.265775  20.676960 2.689046  1 
9.312008  19.392917 1.838787  1 
10.744828  19.043575 1.425647  1 
8.596545  18.177465 2.494430  1 
9.154331  17.624908 3.823903  1 
8.985947  18.553399 5.027603  1 
9.672030  18.112762 6.328787  1 
11.168860  17.856072 6.131759  1 
9.483260  19.220084 7.375734  1 
4.887875  26.869759 7.198297  2 
5.582896  25.872896 8.494250  2 
4.672864  25.124327 7.162378  2 
7.204385  26.757024 6.576489  2 
5.925452  23.221251 7.085909  2 
7.309216  22.557033 6.247864  2 
5.927306  23.151756 5.308673  2 
8.525218  23.794044 4.880849  2 
9.318457  24.723406 6.089515  2 
8.819732  26.814897 4.863133  2 
7.859989  25.961420 3.662970  2 
10.856095  25.549547 4.184147  2 
10.179075  26.601785 2.963817  2 
9.302162  24.814758 1.649790  2 
12.147412  24.087817 2.509291  2 
11.724740  25.451989 1.455578  2 
11.403964  23.804298 0.924291  2 
8.508553  23.177071 3.143423  2 
10.123859  22.905963 3.876589  2 
10.788483  21.841174 1.700034  2 
9.151606  22.134405 1.071100  2 
8.261861  20.818720 3.094651  2 
9.976567  20.579176 3.507743  2 
8.746435  19.606365 0.918186  2 
11.016511  18.015286 1.681406  2 
11.485613  19.699461 1.892102  2 
10.853260  19.143898 0.340029  2 
8.635577  17.354249 1.767078  2 
7.529800  18.404483 2.617292  2 
10.201730  17.344834 3.684193  2 
8.618750  16.691813 4.047153  2 
7.919585  18.738576 5.197175  2 
9.421528  19.520491 4.825464  2 
9.193244  17.198434 6.698948  2 
11.342258  16.835068 5.776651  2 
11.724140  17.977113 7.069183  2 
11.607116  18.545280 5.400023  2 
10.035007  20.130750 7.091209  2 
9.854780  18.896880 8.349035  2 
8.429759  19.489600 7.484209  2 
24.502970  44.629704 33.212509  1 
24.128067  44.559459 34.651434  1 
23.900200  43.450969 35.374777  1 
23.951496  42.048422 34.808490  1 
23.514748  43.522961 36.824417  1 
24.329480  44.430357 37.758017  1 
23.978191  44.249985 39.248031  1 
24.447503  42.943910 39.956054  1 
23.917483  42.948323 41.392904  1 
24.057175  41.640131 39.234125  1 
24.357028  40.323644 39.976007  1 
23.892967  39.152702 39.096996  1 
24.151372  37.747549 39.673723  1 
23.374106  37.521914 40.973971  1 
23.907535  36.595331 38.657840  1 
22.479311  36.388550 38.108877  1 
21.978231  37.499424 37.184637  1 
20.507534  37.413315 36.751523  1 
19.558597  37.327854 37.950449  1 
20.170063  38.665200 35.928849  1 
25.211468  45.447633 33.056672  2 
23.609549  44.821017 32.612274  2 
24.979702  43.715003 32.860890  2 
24.027571  45.531144 35.144011  2 
23.733877  42.019281 33.737799  2 
23.210812  41.399398 35.287139  2 
24.943936  41.610915 34.975698  2 
23.607967  42.503565 37.158147  2 
22.444765  43.745932 36.918776  2 
24.117437  45.476464 37.497141  2 
25.406413  44.287040 37.614313  2 
22.898265  44.390759 39.379631  2 
24.448437  45.088145 39.786306  2 
25.543272  42.980535 40.006364  2 
22.831924  42.822556 41.415714  2 
24.164932  43.889452 41.900226  2 
24.370367  42.142508 41.977900  2 
24.676534  41.568136 38.334039  2 
23.000662  41.663147 38.968605  2 
23.802066  40.300010 40.921168  2 
25.425851  40.243598 40.199332  2 
24.333520  39.232947 38.101040  2 
22.817897  39.310623 39.031145  2 
25.224082  37.702095 39.919008  2 
22.773369  36.608036 40.950666  2 
22.696154  38.348927 41.204100  2 
24.072784  37.425727 41.812413  2 
24.192627  35.660763 39.161381  2 
24.606138  36.695721 37.817332  2 
21.793322  36.230741 38.945251  2 
22.476182  35.452096 37.534077  2 
22.634630  37.568155 36.310229  2 
22.043166  38.459492 37.674444  2 
20.368372  36.530957 36.115655  2 
19.448772  36.290573 38.283022  2 
18.558721  37.700305 37.698892  2 
19.923151  37.916519 38.800795  2 
20.199243  39.570273 36.557088  2 
19.168521  38.587900 35.503711  2 
20.879362  38.805927 35.109482  2 
40.049952  30.790509 18.392044  1 
40.845098  31.272833 19.554411  1 
41.610726  32.374969 19.609262  1 
41.824884  33.312716 18.440837  1 
42.374843  32.741148 20.849120  1 
41.643035  32.713989 22.199114  1 
42.466239  33.316572 23.354671  1 
42.659162  34.862283 23.385344  1 
43.570622  35.218648 24.563361  1 
43.194196  35.473931 22.076528  1 
43.553429  36.971674 22.110538  1 
44.066557  37.381057 20.721933  1 
44.440508  38.867440 20.564867  1 
45.604486  39.254207 21.482071  1 
44.707807  39.297482 19.094257  1 
45.893713  38.653990 18.343597  1 
45.724122  37.167297 18.026855  1 
46.946241  36.454439 17.430024  1 
48.191272  36.614907 18.307155  1 
46.616385  34.961290 17.290034  1 
39.111910  30.353207 18.744333  2 
40.615375  30.022690 17.857409  2 
39.795113  31.592631 17.699769  2 
40.785656  30.636702 20.442502  2 
41.706227  32.814803 17.475130  2 
42.837628  33.728977 18.445967  2 
41.114918  34.147885 18.493289  2 
42.705532  33.746344 20.650470  2 
43.299935  32.154462 20.908175  2 
41.433351  31.667197 22.459147  2 
40.672225  33.218641 22.137235  2 
43.436870  32.807879 23.404485  2 
41.946886  33.044010 24.287069  2 
41.674665  35.306069 23.581309  2 
44.595472  34.881328 24.388225  2 
43.211182  34.757372 25.491993  2 
43.587144  36.299627 24.730315  2 
42.385347  35.426094 21.340037  2 
44.059811  34.910944 21.728670  2 
44.347264  37.142385 22.847121  2 
42.681499  37.569294 22.395586  2 
43.343131  37.096320 19.955100  2 
44.967793  36.780774 20.610194  2 
43.561066  39.447287 20.886269  2 
46.420659  39.742193 20.941394  2 
46.031074  38.391421 22.001834  2 
45.257516  39.959835 22.245020  2 
44.890679  40.381289 19.107307  2 
43.792434  39.165745 18.503228  2 
46.814133  38.836148 18.904536  2 
46.010909  39.185339 17.388984  2 
44.846308  37.030272 17.385886  2 
45.518190  36.607982 18.927197  2 
47.151018  36.860725 16.432403  2 
48.710273  37.550221 18.073820  2 
48.902452  35.795759 18.149137  2 
47.938478  36.628076 19.374130  2 
46.501518  34.487880 18.278660  2 
47.415004  34.438579 16.762032  2 
45.685343  34.809577 16.738297  2 
30.876935  40.510979 12.144789  1 
30.333956  40.721994 13.514693  1 
30.710498  40.092640 14.639872  1 
31.757199  39.000516 14.686035  1 
30.067401  40.394440 15.962957  1 
29.899759  41.862596 16.381501  1 
29.433066  42.034444 17.840524  1 
30.456774  41.731306 18.975209  1 
29.751564  41.888102 20.325605  1 
31.145660  40.356956 18.875331  1 
32.042572  39.946500 20.058764  1 
32.626218  38.555830 19.768058  1 
33.583759  38.001217 20.840141  1 
32.869315  37.794017 22.178922  1 
34.348806  36.720791 20.399357  1 
33.534235  35.444238 20.097972  1 
32.656691  35.521268 18.847643  1 
31.709352  34.337053 18.606531  1 
30.800182  34.073061 19.810246  1 
30.842619  34.651462 17.378600  1 
30.920293  41.466483 11.615265  2 
30.219594  39.834063 11.592728  2 
31.885700  40.098822 12.155213  2 
29.538969  41.470807 13.579316  2 
31.843119  38.460485 13.739689  2 
31.513867  38.248824 15.444124  2 
32.736769  39.428086 14.934903  2 
30.710067  39.899832 16.671179  2 
29.109762  39.865645 16.045342  2 
29.136145  42.321702 15.738482  2 
30.822762  42.431294 16.221424  2 
28.512039  41.457824 17.990839  2 
29.137542  43.089449 17.954604  2 
31.238397  42.499646 18.917750  2 
29.018255  41.093324 20.484868  2 
29.231716  42.852574 20.387898  2 
30.472978  41.861454 21.147501  2 
31.845079  40.403469 18.034145  2 
30.401652  39.578383 18.709421  2 
31.441911  39.895324 20.974438  2 
32.840858  40.680703 20.208257  2 
33.116803  38.550713 18.792478  2 
31.740275  37.924331 19.731126  2 
34.358353  38.768582 20.995364  2 
33.005246  36.783543 22.575237  2 
31.792286  37.972098 22.109450  2 
33.270490  38.488465 22.925374  2 
35.044232  36.469164 21.212571  2 
34.985398  36.954725 19.536454  2 
32.944237  35.179262 20.979276  2 
34.247433  34.621099 19.952565  2 
33.289162  35.694378 17.970040  2 
31.992774  36.371102 18.901070  2 
32.300170  33.438011 18.394619  2 
31.303285  33.431617 20.541037  2 
29.874306  33.567902 19.511383  2 
30.516928  35.002832 20.317991  2 
30.157209  35.489922 17.583271  2 
30.237185  33.786901 17.103301  2 
31.457126  34.926582 16.517809  2 
30.713795  40.682431 33.111640  1 
30.155140  40.089566 34.357595  1 
30.242349  38.809243 34.753911  1 
30.912853  37.719477 33.945651  1 
29.618733  38.338467 36.036363  1 
29.861244  39.153945 37.315015  1 
29.356899  38.454614 38.592768  1 
30.156103  37.223571 39.115442  1 
29.428408  36.649037 40.334396  1 
30.413525  36.125768 38.065709  1 
31.056563  34.821376 38.574139  1 
31.223419  33.864640 37.384209  1 
31.890038  32.513821 37.707858  1 
31.046852  31.691035 38.686509  1 
32.273613  31.683513 36.449868  1 
31.143471  31.195050 35.518135  1 
30.425407  32.301031 34.743194  1 
29.191546  31.875040 33.934449  1 
28.156384  31.152701 34.801557  1 
28.552237  33.131982 33.326769  1 
31.077660  41.692863 33.316312  2 
29.929626  40.739653 32.352108  2 
31.551848  40.108757 32.716475  2 
29.614474  40.795224 34.995270  2 
30.906870  37.927907 32.872754  2 
30.401446  36.759532 34.071817  2 
31.953193  37.594699 34.271890  2 
30.030835  37.352361 36.166760  2 
28.544229  38.170158 35.892852  2 
29.318523  40.105380 37.227940  2 
30.920452  39.410485 37.430083  2 
28.297971  38.198258 38.464979  2 
29.378620  39.209556 39.394624  2 
31.131893  37.593556 39.455337  2 
28.483092  36.180985 40.047899  2 
29.213676  37.434412 41.070200  2 
30.045184  35.899726 40.839155  2 
31.157158  36.515215 37.362655  2 
29.487480  35.883460 37.545155  2 
30.399949  34.353345 39.316888  2 
32.022430  35.028102 39.046398  2 
31.763114  34.361600 36.575373  2 
30.195889  33.681490 37.074873  2 
32.842709  32.746801 38.208934  2 
30.847586  30.679395 38.321161  2 
30.079090  32.155539 38.896753  2 
31.577504  31.589600 39.639666  2 
32.799806  30.787255 36.807767  2 
33.014455  32.237171 35.858942  2 
30.436430  30.594731 36.096681  2 
31.590409  30.511396 34.783141  2 
31.145464  32.822199 34.102821  2 
30.040268  33.050002 35.418891  2 
29.504555  31.214033 33.117537  2 
28.390469  30.085689 34.874403  2 
27.148039  31.240304 34.380467  2 
28.122909  31.559585 35.819319  2 
28.131792  33.780433 34.112536  2 
27.741043  32.862049 32.649343  2 
29.284060  33.719501 32.766834  2 
12.934151  44.029906 4.106031  1 
11.875424  44.297099 5.117809  1 
11.244857  43.394147 5.886550  1 
11.492905  41.903007 5.812900  1 
10.180168  43.800228 6.864683  1 
10.458892  44.980029 7.807630  1 
9.387806  45.156088 8.902098  1 
9.351745  44.117039 10.062468  1 
8.165382  44.442693 10.974592  1 
9.305805  42.644607 9.611681  1 
9.106385  41.590003 10.716888  1 
9.085103  40.199432 10.064985  1 
8.928854  39.013917 11.036572  1 
7.585931  39.062535 11.771346  1 
9.167465  37.624933 10.378646  1 
8.208292  37.166845 9.258786  1 
8.315429  37.960152 7.955510  1 
7.268061  37.644265 6.877926  1 
5.837759  37.787831 7.405973  1 
7.472435  38.612929 5.704121  1 
13.670968  44.837422 4.122846  2 
12.484187  43.986949 3.110656  2 
13.467500  43.098917 4.296780  2 
11.596762  45.350252 5.218403  2 
11.849447  41.584321 4.830096  2 
10.574251  41.337685 6.001144  2 
12.233558  41.606834 6.566573  2 
10.029005  42.910764 7.452252  2 
9.226865  43.949790 6.342833  2 
10.472549  45.903852 7.212885  2 
11.448074  44.895235 8.271639  2 
8.402064  45.235101 8.427287  2 
9.567877  46.139842 9.363817  2 
10.269135  44.256557 10.648566  2 
7.214169  44.236747 10.477041  2 
8.176113  45.499190 11.271290  2 
8.207928  43.852957 11.894952  2 
10.291520  42.397881 9.203714  2 
8.535278  42.511064 8.852930  2 
8.147262  41.761436 11.219445  2 
9.905537  41.658889 11.462055  2 
9.975262  40.060071 9.448017  2 
8.205092  40.245127 9.425811  2 
9.722242  39.122044 11.792735  2 
7.027077  38.125981 11.686789  2 
6.936404  39.861336 11.401804  2 
7.753130  39.241511 12.839242  2 
9.099680  36.876418 11.180756  2 
10.201246  37.566068 10.014765  2 
7.183994  37.170389 9.640633  2 
8.441966  36.118067 9.028975  2 
9.328332  37.858637 7.550669  2 
8.179514  39.015211 8.140540  2 
7.419284  36.620718 6.514976  2 
5.511780  36.863899 7.894549  2 
5.129756  37.999239 6.596165  2 
5.753197  38.601795 8.135923  2 
7.232033  39.647243 5.999236  2 
6.824341  38.346704 4.868117  2 
8.507059  38.599200 5.352506  2 
11.013185  34.985554 7.553184  1 
11.699746  33.725024 7.947758  1 
12.992907  33.577912 8.279404  1 
14.001593  34.706085 8.264249  1 
13.563066  32.238420 8.648035  1 
12.804839  31.370323 9.663055  1 
13.596399  30.129091 10.120066  1 
14.809695  30.346760 11.072911  1 
15.485428  28.995126 11.321806  1 
15.835313  31.388731 10.587337  1 
17.129206  31.520875 11.413059  1 
18.011484  32.599194 10.766583  1 
19.340650  32.889667 11.489623  1 
20.257285  31.662701 11.495337  1 
20.081858  34.151149 10.962033  1 
20.579001  34.154708 9.500260  1 
19.472792  34.189672 8.444598  1 
19.919601  34.028154 6.984384  1 
20.740249  32.752859 6.771381  1 
18.667572  33.976905 6.096863  1 
9.997288  34.992868 7.957118  2 
10.957103  35.043877 6.462984  2 
11.520291  35.872578 7.932157  2 
11.058240  32.838820 7.951677  2 
13.737233  35.496719 7.557425  2 
14.992419  34.349108 7.964614  2 
14.088632  35.146819 9.265491  2 
14.531673  32.481841 9.050254  2 
13.779769  31.659282 7.741877  2 
11.879963  31.011678 9.190470  2 
12.499447  31.954402 10.538591  2 
13.900918  29.554785 9.236427  2 
12.884889  29.481644 10.656674  2 
14.407466  30.698304 12.031666  2 
15.986678  28.630418 10.421521  2 
14.752498  28.241240 11.636128  2 
16.226974  29.071618 12.122381  2 
15.370637  32.375016 10.688641  2 
16.098038  31.196490 9.547497  2 
17.669777  30.567160 11.403965  2 
16.897314  31.778171 12.451658  2 
17.444710  33.524481 10.643845  2 
18.231737  32.176963 9.787675  2 
19.084795  33.114654 12.536933  2 
21.257226  31.884021 11.110973  2 
19.856066  30.838916 10.897899  2 
20.381034  31.296319 12.520441  2 
20.966923  34.290445 11.598827  2 
19.459515  35.038736 11.133659  2 
21.245443  33.301962 9.346367  2 
21.198334  35.051689 9.361685  2 
18.881322  35.103469 8.568343  2 
18.781935  33.372859 8.590852  2 
20.519050  34.898046 6.690788  2 
21.795845  32.929779 7.001674  2 
20.683576  32.407349 5.732554  2 
20.390163  31.932348 7.409124  2 
18.084641  33.061470 6.288856  2 
18.943502  33.979982 5.041563  2 
18.013577  34.832697 6.281743  2 
38.110029  27.634799 14.363619  1 
37.143262  26.898935 15.223768  1 
37.382281  25.791175 15.944626  1 
38.711302  25.067453 15.964087  1 
36.306624  25.139060 16.764943  1 
35.448380  26.019028 17.685724  1 
34.536496  25.211094 18.630073  1 
35.202464  24.455635 19.818832  1 
34.122803  23.663365 20.561879  1 
36.378536  23.540911 19.427031  1 
36.962979  22.652068 20.541404  1 
38.111905  21.821871 19.949915  1 
38.840000  20.895434 20.942605  1 
37.901410  19.822089 21.501779  1 
40.147051  20.269900 20.377446  1 
40.043082  19.317371 19.166735  1 
39.628883  19.986648 17.855305  1 
39.354905  19.050109 16.669648  1 
38.311101  17.982182 17.009079  1 
38.848393  19.894597 15.491437  1 
37.924815  28.709658 14.438699  2 
37.977819  27.328439 13.322587  2 
39.145032  27.461777 14.657589  2 
36.136107  27.325642 15.245295  2 
39.286480  25.220213 15.047342  2 
38.573092  23.985456 16.059646  2 
39.313443  25.408725 16.815713  2 
36.847641  24.427683 17.365342  2 
35.664251  24.523938 16.122708  2 
34.797229  26.644659 17.059668  2 
36.068193  26.706491 18.272411  2 
33.924499  24.523526 18.033344  2 
33.824404  25.927422 19.069597  2 
35.589155  25.216962 20.508349  2 
33.757871  22.828053 19.958675  2 
33.268300  24.304248 20.813716  2 
34.510636  23.264899 21.503937  2 
37.218616  24.188599 19.155537  2 
36.095730  22.910643 18.584398  2 
36.187842  21.971714 20.913092  2 
37.315461  23.265682 21.376807  2 
38.832289  22.476436 19.454892  2 
37.608585  21.208271 19.204788  2 
39.156984  21.528035 21.786570  2 
38.303915  18.811433 21.387035  2 
36.918691  19.835383 21.021553  2 
37.746332  19.986262 22.573874  2 
40.604971  19.695434 21.195094  2 
40.864323  21.068273 20.147883  2 
39.373023  18.490868 19.417574  2 
41.033466  18.867550 19.011325  2 
40.371337  20.745260 17.584297  2 
38.698170  20.520051 17.978237  2 
40.289715  18.561074 16.370940  2 
38.783224  17.119931 17.490993  2 
37.801519  17.618040 16.109369  2 
37.541229  18.367022 17.688572  2 
37.858100  20.325471 15.711346  2 
38.752865  19.283541 14.592944  2 
39.529439  20.720681 15.272275  2 
29.330322  28.316418 8.550035  1 
28.164266  27.676428 9.218403  1 
28.192410  26.659712 10.095554  1 
29.458840  25.952416 10.527223  1 
26.932636  26.097610 10.689036  1 
25.891435  27.070576 11.261752  1 
24.756013  26.368969 12.032885  1 
25.088727  25.758589 13.427202  1 
23.841282  25.048418 13.961070  1 
26.305285  24.813608 13.446524  1 
26.574694  24.061662 14.763883  1 
27.816485  23.177720 14.574893  1 
28.254463  22.375590 15.815298  1 
27.183311  21.366246 16.239036  1 
29.647230  21.699101 15.668180  1 
29.827309  20.614160 14.584474  1 
29.767051  21.126747 13.144694  1 
29.776620  20.059333 12.040844  1 
28.658393  19.029593 12.226351  1 
29.597602  20.760500 10.686513  1 
29.155487  29.391485 8.455554  2 
29.454770  27.892550 7.550070  2 
30.255622  28.185393 9.110606  2 
27.192890  28.095614 8.939809  2 
30.247226  26.003871 9.771983  2 
29.277885  24.887386 10.705870  2 
29.837315  26.392751 11.458443  2 
27.291734  25.463122 11.481317  2 
26.457185  25.408777 9.979854  2 
25.430229  27.616170 10.426903  2 
26.360426  27.824791 11.903768  2 
24.297088  25.613562 11.383174  2 
23.972569  27.125596 12.197551  2 
25.307989  26.596233 14.101634  2 
23.620013  24.147258 13.383379  2 
22.965022  25.707701 13.918109  2 
23.973777  24.762617 15.008651  2 
27.200273  25.432138 13.322582  2 
26.227548  24.089469 12.636075  2 
25.716951  23.422554 15.004071  2 
26.721338  24.768929 15.586642  2 
28.651348  23.776768 14.205298  2 
27.501319  22.479671 13.801297  2 
28.365014  23.102442 16.635301  2 
27.579806  20.351995 16.342429  2 
26.351545  21.317747 15.530275  2 
26.769884  21.650344 17.213077  2 
29.874754  21.224780 16.633323  2 
30.416118  22.471230 15.537019  2 
29.098235  19.816844 14.751041  2 
30.815267  20.156645 14.732700  2 
30.569779  21.854835 12.984414  2 
28.846758  21.664026 12.970764  2 
30.745581  19.546142 12.041761  2 
28.977012  18.231230 12.904374  2 
28.381015  18.561723 11.274557  2 
27.752129  19.483816 12.644540  2 
28.593273  21.206539 10.602469  2 
29.715522  20.050421 9.866947  2 
30.329422  21.561085 10.553204  2 
23.860629  16.713449 31.025708  1 
24.428424  15.337703 31.056090  1 
25.467627  14.875567 30.341677  1 
26.227150  15.701260 29.325899  1 
25.932971  13.452661 30.460021  1 
26.136229  12.859389 31.861977  1 
26.819929  11.477911 31.849596  1 
28.337637  11.417304 31.502797  1 
28.774177  9.949705 31.470134  1 
28.732405  12.133542 30.197218  1 
30.190610  11.963596 29.730106  1 
30.376700  12.744611 28.420716  1 
31.797788  12.713450 27.826259  1 
32.211569  11.292248 27.432983  1 
32.012160  13.713300 26.654327  1 
31.189392  13.519606 25.362243  1 
29.691183  13.791317 25.506761  1 
28.817057  13.451528 24.290867  1 
28.995804  11.998438 23.841659  1 
27.347441  13.685761 24.669362  1 
23.544513  17.003022 32.031432  2 
22.989626  16.733491 30.365378  2 
24.583084  17.455086 30.685675  2 
23.919118  14.649576 31.737259  2 
25.618558  16.499608 28.893643  2 
26.563192  15.085768 28.484951  2 
27.113085  16.150428 29.792455  2 
26.876172  13.454767 29.940789  2 
25.290987  12.795573 29.860376  2 
25.150759  12.731510 32.330864  2 
26.700178  13.542840 32.506827  2 
26.250432  10.803736 31.198030  2 
26.710424  11.063069 32.864139  2 
28.875875  11.905464 32.325343  2 
28.340868  9.425865 30.614207  2 
28.465573  9.427400 32.384624  2 
29.863346  9.868283 31.408970  2 
28.650445  13.210249 30.378681  2 
28.065559  11.831481 29.390171  2 
30.395197  10.902900 29.543186  2 
30.884028  12.320348 30.498587  2 
30.050156  13.778548 28.550321  2 
29.700919  12.234565 27.736447  2 
32.478913  13.045663 28.625410  2 
32.562534  11.228267 26.398898  2 
31.393846  10.573950 27.542109  2 
33.034259  10.954455 28.072879  2 
33.071655  13.647577 26.369021  2 
31.874124  14.739005 27.019638  2 
31.372998  12.516887 24.967467  2 
31.582130  14.217612 24.609982  2 
29.538617  14.832060 25.812949  2 
29.270433  13.189565 26.298418  2 
29.073980  14.121346 23.461660  2 
29.851249  11.905808 23.164717  2 
28.111926  11.631490 23.307000  2 
29.166201  11.327551 24.692182  2 
27.016223  12.962993 25.432639  2 
26.702095  13.567955 23.797895  2 
27.195928  14.689630 25.073788  2 
4.236135  10.126157 13.948677  1 
4.346735  11.327768 13.076960  1 
5.471354  11.975521 12.731204  1 
6.850320  11.594736 13.225070  1 
5.439928  13.190330 11.848900  1 
4.612902  13.139087 10.555777  1 
4.836662  14.356096 9.636591  1 
6.192244  14.456786 8.875250  1 
6.220597  15.776267 8.098305  1 
7.444465  14.318237 9.761886  1 
8.803461  14.571685 9.081936  1 
9.913038  14.389197 10.128194  1 
11.351700  14.571326 9.607689  1 
11.591821  15.998634 9.106861  1 
12.447849  14.131492 10.619659  1 
12.561194  14.892500 11.958301  1 
11.389977  14.681997 12.919176  1 
11.385553  15.547708 14.187433  1 
11.473160  17.042101 13.864439  1 
10.085855  15.273060 14.957660  1 
3.448475  9.468930 13.570648  2 
3.976503  10.435749 14.964466  2 
5.158064  9.545804 13.977396  2 
3.392291  11.705305 12.698272  2 
6.824755  11.086112 14.192145  2 
7.481074  12.479063 13.363146  2 
7.342771  10.937508 12.497159  2 
6.475510  13.341856 11.596224  2 
5.168470  14.075740 12.436983  2 
3.547787  13.125331 10.825404  2 
4.803190  12.216094 9.996447  2 
4.648268  15.273780 10.207329  2 
4.045514  14.322287 8.870872  2 
6.211846  13.639758 8.142678  2 
6.293456  16.632754 8.773508  2 
5.314426  15.894111 7.490607  2 
7.071094  15.805681 7.410955  2 
7.509974  13.270051 10.071655  2 
7.358458  14.967964 10.632350  2 
8.838410  15.599708 8.702704  2 
8.945258  13.886429 8.239926  2 
9.813864  13.416920 10.615324  2 
9.699676  15.177974 10.847470  2 
11.460068  13.896530 8.744066  2 
12.473207  16.460254 9.561468  2 
10.742485  16.658991 9.304566  2 
11.756678  15.989380 8.023751  2 
13.415212  14.240863 10.109270  2 
12.347684  13.057528 10.822503  2 
12.719113  15.954788 11.754312  2 
13.471994  14.542736 12.463733  2 
11.317931  13.619648 13.176855  2 
10.455178  14.929837 12.438984  2 
12.233149  15.263963 14.822508  2 
12.516520  17.350324 13.741893  2 
11.041807  17.652514 14.666363  2 
10.938573  17.290655 12.939803  2 
9.209850  15.636853 14.396446  2 
10.096125  15.780462 15.923187  2 
9.946831  14.203696 15.134867  2 
16.540091  35.588086 32.806201  1 
16.759951  34.524709 31.787927  1 
17.849375  34.351227 31.021795  1 
19.053004  35.268357 31.046276  1 
17.936375  33.237085 30.018636  1 
17.546522  31.818413 30.459260  1 
17.885823  30.737186 29.414317  1 
19.384400  30.362315 29.211540  1 
19.483795  29.338575 28.076835  1 
20.321259  31.557483 28.952224  1 
21.780226  31.224492 28.586205  1 
22.539654  32.541206 28.365639  1 
24.034978  32.395095 28.024315  1 
24.239177  31.661315 26.695569  1 
24.823118  33.735455 28.061042  1 
24.437888  34.843136 27.056759  1 
23.067439  35.479154 27.294862  1 
22.579109  36.465472 26.224039  1 
22.577642  35.842070 24.825262  1 
21.151837  36.903632 26.582936  1 
15.987212  35.176040 33.654615  2 
15.953058  36.398333 32.365772  2 
17.474407  35.994179 33.193149  2 
15.924087  33.829152 31.667788  2 
18.801182  36.283908 31.362234  2 
19.501626  35.361705 30.051804  2 
19.816408  34.869657 31.726395  2 
18.973784  33.241384 29.730542  2 
17.396326  33.511161 29.103916  2 
16.459404  31.790364 30.616567  2 
18.005695  31.558301 31.419717  2 
17.425674  31.009704 28.456521  2 
17.370087  29.817670 29.733523  2 
19.720994  29.870190 30.133006  2 
19.247095  29.792527 27.111083  2 
18.793562  28.501383 28.241208  2 
20.490806  28.914909 28.021189  2 
20.417568  32.106434 29.894732  2 
19.900835  32.199545 28.178760  2 
21.802219  30.641920 27.657766  2 
22.249250  30.632102 29.378514  2 
22.417852  33.194817 29.231902  2 
22.027061  32.975811 27.509241  2 
24.477558  31.771166 28.816637  2 
24.881556  32.215071 26.004695  2 
23.296164  31.468033 26.176051  2 
24.720262  30.693607 26.875809  2 
25.878137  33.490102 27.873995  2 
24.797713  34.146162 29.078516  2 
24.519714  34.449425 26.040245  2 
25.191174  35.639298 27.134477  2 
23.050844  35.945994 28.285801  2 
22.296233  34.723718 27.315236  2 
23.225803  37.350929 26.225434  2 
23.564518  35.934119 24.360266  2 
21.855601  36.337098 24.165447  2 
22.318075  34.777045 24.854620  2 
20.446468  36.061292 26.495702  2 
20.811346  37.693104 25.911666  2 
21.096762  37.278938 27.607818  2 
17.130923  26.123026 12.882912  1 
17.212799  26.575913 14.298603  1 
18.212291  26.344456 15.165402  1 
19.439601  25.521647 14.838071  1 
18.162059  26.852066 16.577854  1 
17.776118  28.318910 16.819064  1 
17.973476  28.772411 18.279019  1 
19.431264  28.975310 18.789966  1 
19.382662  29.340943 20.276380  1 
20.372798  27.779293 18.552406  1 
21.775780  27.869168 19.182487  1 
22.548581  26.588044 18.835187  1 
23.995956  26.524014 19.359446  1 
24.040576  26.540292 20.890276  1 
24.824355  25.342706 18.778631  1 
24.372457  23.900940 19.096506  1 
23.053669  23.481704 18.445060  1 
22.488738  22.117782 18.867578  1 
22.325080  22.008129 20.386262  1 
21.119759  21.931147 18.197535  1 
16.655412  26.898048 12.275875  2 
16.526972  25.213596 12.825790  2 
18.111914  25.927400 12.450507  2 
16.348142  27.150414 14.643885  2 
19.252620  24.780568 14.056772  2 
19.786755  24.960999 15.712203  2 
20.256032  26.177434 14.509906  2 
19.164188  26.690302 16.936748  2 
17.539888  26.190801 17.193577  2 
16.710455  28.441029 16.580719  2 
18.322983  28.991151 16.148239  2 
17.426292  28.090507 18.941570  2 
17.465220  29.744617 18.378390  2 
19.845164  29.836353 18.249713  2 
19.062387  28.490545 20.883853  2 
18.687583  30.171315 20.454361  2 
20.365258  29.666725 20.629981  2 
20.581791  27.737494 17.478387  2 
19.895279  26.857605 18.883642  2 
21.684822  27.944712 20.272391  2 
22.305069  28.754904 18.816441  2 
22.536111  26.422693 17.755855  2 
21.964587  25.812147 19.327108  2 
24.497989  27.438128 19.005472  2 
24.625531  25.712672 21.301951  2 
23.043885  26.485985 21.337698  2 
24.507746  27.468176 21.238374  2 
25.846694  25.448308 19.168402  2 
24.915773  25.460733 17.691300  2 
24.337757  23.767175 20.180899  2 
25.153746  23.219508 18.732375  2 
23.152848  23.537544 17.355464  2 
22.265846  24.173849 18.702215  2 
23.158967  21.323923 18.517106  2 
23.261547  21.686693 20.853515  2 
21.554800  21.276097 20.655613  2 
22.037417  22.966529 20.834853  2 
20.383727  22.647783 18.596760  2 
20.736683  20.925952 18.378206  2 
21.181350  22.084511 17.117278  2 
7.833181  5.730437 18.562047  1 
8.886406  6.718654 18.201308  1 
8.802883  8.056558 18.284585  1 
7.563706  8.798169 18.737248  1 
9.943178  8.943088 17.873488  1 
11.352978  8.613397 18.385868  1 
12.389399  9.712113 18.078076  1 
12.306089  11.041600 18.886103  1 
13.372181  12.004632 18.355542  1 
10.918622  11.711152 18.889512  1 
10.826550  13.105852 19.537410  1 
9.374368  13.595528 19.434927  1 
9.091752  14.970334 20.070442  1 
9.873842  16.085099 19.369491  1 
7.579045  15.316263 20.175942  1 
6.765598  15.464420 18.871988  1 
6.558783  14.165341 18.091627  1 
5.899273  14.297753 16.711241  1 
6.648291  15.281393 15.807563  1 
5.883060  12.913584 16.046631  1 
8.295567  4.848602 19.013521  2 
7.298408  5.422353 17.659724  2 
7.118207  6.127527 19.282269  2 
9.814138  6.278423 17.823930  2 
6.645632  8.234708 18.552211  2 
7.451115  9.747087 18.202618  2 
7.628118  9.019263 19.810224  2 
9.653136  9.910989 18.245346  2 
9.954625  9.060207 16.782783  2 
11.695661  7.693909 17.891431  2 
11.347979  8.403761 19.461509  2 
12.382674  9.917214 17.000456  2 
13.380179  9.277565 18.285213  2 
12.562403  10.803083 19.926293  2 
13.126279  12.353342 17.349207  2 
14.356490  11.520660 18.320366  2 
13.469266  12.876828 19.008618  2 
10.262857  11.098680 19.517043  2 
10.529534  11.767433 17.873298  2 
11.476110  13.805087 18.997954  2 
11.151623  13.066142 20.582118  2 
8.695467  12.847360 19.849407  2 
9.219063  13.669399 18.359997  2 
9.454747  14.915936 21.108813  2 
9.232093  16.911746 19.051036  2 
10.405569  15.728176 18.482698  2 
10.619627  16.503009 20.054724  2 
7.507913  16.276861 20.705509  2 
7.082739  14.587981 20.830054  2 
7.228398  16.232036 18.246218  2 
5.773045  15.851342 19.141215  2 
6.009766  13.450793 18.714664  2 
7.507176  13.696267 17.876272  2 
4.863832  14.636346 16.835605  2 
6.311068  16.306932 15.989685  2 
6.477845  15.062470 14.747010  2 
7.730878  15.248229 15.979085  2 
6.905598  12.576931 15.810464  2 