NumberOfAtoms 221
SpinPolarized yes
#FixSpin .true.
#TotalSpin 
NumberOfSpecies 4

 
MD.TypeOfRun  nose
MD.FinalTimeStep 10
MD.LengthTimeStep 1.0  fs
MD.InitialTemperature 300 K 
MD.TargetTemperature  300  K


%block ChemicalSpeciesLabel
1  6  C
2  7  N
3  8  O
4  1  H
%endblock ChemicalSpeciesLabel

PAO.BasisSize szp 
 PAO.EnergyShift 0.02 Ry 
 
MeshCutoff          100 Ry
MaxSCFIterations    100  
DM.NumberPulay       3  
DM.Tolerance         1e-3
WriteDenchar	.true.

%block ProjectedDensityOfStates
-10.0 10.0 0.200 500 eV
%endblock ProjectedDensityOfStates
NetCharge 0.00

%block BandLines
1  1.000  1.000 1.000  L
20 0.00   0.00   0.00  \Gamma
25 2.00   0.000  0.00  X
30 2.00   2.00   2.00  \Gamma
%endblock BandLines


LongOutput .true.
WriteCoorXmol .true.
LatticeConstant 1 Ang
%block LatticeVectors
  34.146233 0.0 0.0
  0.0 37.582352 0.0
  0.0 0.0 24.857795
%endblock LatticeVectors


 

#UseSaveData .true.  
%block kgrid_Monkhorst_Pack
1 0 0 0.0 
 0 1 0 0.0 
 0 0 1 0.0 

%endblock kgrid_Monkhorst_Pack
WriteMDXmol .true.
AtomicCoordinatesFormat Ang
%block AtomicCoordinatesAndAtomicSpecies
13.588984  16.704004 10.335882  1 
12.671798  17.562846 10.997145  1 
12.526184  18.893081 10.518223  1 
13.277921  19.381245 9.447956  1 
14.248866  18.543829 8.896945  1 
14.430457  17.186498 9.293245  1 
13.680759  15.339274 10.722267  1 
12.929692  14.920779 11.844639  1 
12.104426  15.744593 12.501871  2 
11.942641  17.028413 12.086044  1 
15.399470  16.314641 8.687440  1 
15.423683  14.934219 9.030569  1 
14.523990  14.440831 10.032279  1 
14.464259  13.073394 10.413386  1 
13.766471  12.642530 11.542690  1 
13.098521  13.608847 12.308695  1 
13.889452  11.186886 11.993267  1 
13.592688  10.982204 13.497886  1 
13.693892  12.266922 14.333257  1 
12.685946  13.263928 13.725472  1 
16.380258  16.770595 7.756527  1 
17.372839  15.953369 7.193114  1 
17.350160  14.607245 7.516025  1 
16.393641  14.109988 8.399375  1 
10.901246  17.802139 12.884838  1 
11.247545  17.986628 14.381859  1 
12.540322  18.782759 14.561973  1 
10.122170  18.706591 15.139598  1 
13.022350  20.769263 8.875269  1 
12.020916  20.772393 7.695021  1 
11.741372  22.171073 7.081350  1 
12.990036  22.821635 6.482015  1 
10.644773  22.109470 6.004686  1 
15.145610  12.807023 14.418494  1 
15.289192  14.076070 15.270242  1 
16.726303  14.606812 15.307516  1 
17.713974  13.617536 15.904897  1 
12.995095  10.266442 11.128137  1 
13.198010  8.778267 11.399929  1 
18.301347  13.779884 6.994565  3 
18.438958  16.555992 6.306692  1 
18.038328  16.615414 4.831666  1 
19.131558  17.236049 3.969832  1 
11.816372  19.571635 10.978514  4 
14.865704  18.966151 8.108035  4 
15.029431  12.321934 9.875743  4 
14.938116  10.895286 11.838094  4 
14.249629  10.200572 13.901009  4 
12.570588  10.595849 13.618884  4 
13.372184  12.026001 15.354977  4 
12.656831  14.154867 14.360176  4 
11.675397  12.840996 13.719347  4 
16.422595  17.825851 7.486699  4 
16.440792  13.050480 8.630724  4 
9.957985  17.243850 12.803012  4 
10.689959  18.779384 12.446091  4 
11.378175  17.000383 14.845476  4 
12.446932  19.783485 14.126241  4 
13.387953  18.279436 14.089136  4 
12.776933  18.898412 15.625090  4 
9.954242  19.715800 14.746814  4 
10.379495  18.807415 16.201343  4 
9.178363  18.155407 15.081824  4 
13.983496  21.198068 8.567876  4 
12.641965  21.418523 9.672812  4 
11.067846  20.360095 8.052409  4 
12.372442  20.092384 6.908094  4 
11.371292  22.828998 7.877155  4 
13.467875  22.171511 5.741821  4 
13.720626  23.059877 7.259674  4 
12.736244  23.764874 5.983013  4 
10.898816  21.412904 5.198294  4 
10.488766  23.096188 5.549640  4 
9.686969  21.800176 6.435605  4 
15.554448  13.021448 13.425200  4 
15.776508  12.012914 14.832760  4 
14.941620  13.879459 16.290948  4 
14.658744  14.876549 14.866742  4 
16.746510  15.529715 15.899974  4 
17.048519  14.876432 14.294466  4 
17.392292  13.298065 16.900970  4 
18.703762  14.074919 15.992999  4 
17.820625  12.730161 15.274137  4 
13.181443  10.445287 10.061898  4 
11.939451  10.514580 11.299338  4 
14.199888  8.458360 11.097256  4 
12.470618  8.189335 10.830504  4 
13.062423  8.529280 12.456395  4 
18.215445  12.902225 7.403289  4 
19.376720  15.998490 6.422700  4 
18.661563  17.568626 6.668672  4 
17.121898  17.206148 4.717532  4 
17.818608  15.608498 4.458142  4 
19.391900  18.240683 4.318994  4 
18.792762  17.318810 2.931733  4 
20.039353  16.623883 3.978753  4 
4.626451  15.177897 11.162908  1 
5.563407  14.091882 10.662668  1 
6.635999  14.582431 9.668015  1 
7.598863  13.507529 9.159436  1 
7.458361  12.179092 9.613593  1 
8.284455  11.184592 9.088205  1 
8.277163  9.828809 9.339338  2 
7.628423  9.371974 9.955336  4 
9.196479  9.215381 8.533856  1 
9.416873  7.791557 8.356127  1 
9.030616  6.833690 9.264508  1 
9.241297  5.514252 9.094400  2 
9.822704  5.083212 7.953467  1 
10.039172  3.705847 7.774692  1 
9.790462  2.737273 8.933550  1 
8.750993  1.669196 8.563937  1 
11.104737  2.109281 9.467511  1 
12.134639  3.107977 10.031846  1 
11.654688  3.897809 11.242641  1 
10.535611  3.225235 6.546010  1 
10.878040  4.100810 5.524664  1 
10.736347  5.471257 5.724516  1 
10.218563  5.983412 6.936718  1 
10.072398  7.373516 7.177240  1 
10.524932  8.437596 6.173030  1 
10.865751  9.813278 6.796879  1 
9.834020  10.190106 7.798594  1 
9.273646  11.442333 8.151054  1 
9.471310  12.768828 7.742924  1 
8.626275  13.796343 8.229691  1 
8.874666  15.179644 7.671757  1 
8.081169  15.440485 6.381935  1 
8.289753  16.854123 5.790919  1 
7.837816  17.923440 6.788681  1 
9.745154  17.049762 5.321302  1 
10.029410  18.410012 4.702093  1 
3.825942  14.722061 11.757995  4 
4.162393  15.720835 10.335424  4 
5.152734  15.889463 11.805672  4 
4.951047  13.317044 10.184482  4 
6.044226  13.637244 11.537823  4 
7.218948  15.377867 10.146673  4 
6.120184  15.016205 8.802024  4 
6.705126  11.900131 10.337515  4 
8.536534  7.089126 10.197341  4 
9.335682  3.273195 9.773333  4 
9.094945  0.992206 7.775777  4 
7.823217  2.141010 8.218451  4 
8.500274  1.061132 9.440523  4 
11.595441  1.535181 8.670465  4 
10.861115  1.386869 10.256976  4 
12.453403  3.805587 9.249605  4 
13.033969  2.551592 10.326830  4 
10.725980  4.434269 11.042897  4 
12.404256  4.644550 11.527004  4 
11.491859  3.242622 12.103953  4 
10.667611  2.157117 6.383972  4 
11.264229  3.727689 4.584662  4 
11.017684  6.127671 4.909251  4 
9.718491  8.560667 5.438118  4 
11.421479  8.106832 5.637609  4 
10.955240  10.565870 6.007372  4 
11.837259  9.749349 7.304499  4 
10.257868  12.993961 7.026999  4 
9.949074  15.280502 7.472690  4 
8.656720  15.922676 8.442095  4 
7.010762  15.292780 6.573830  4 
8.352100  14.693530 5.622897  4 
7.641436  16.934782 4.906909  4 
8.454476  17.919122 7.691972  4 
6.797101  17.753645 7.085782  4 
7.894609  18.927153 6.359993  4 
9.983802  16.277215 4.579145  4 
10.440154  16.912515 6.155385  4 
9.338401  18.627284 3.882677  4 
11.049411  18.429266 4.304273  4 
9.957142  19.209297 5.445710  4 
22.566143  26.986228 1.041257  1 
23.486282  26.559769 2.140213  1 
23.052065  25.601058 3.002063  2 
23.854481  25.189348 4.007633  1 
25.129083  25.673460 4.250704  1 
25.600762  26.662609 3.376512  1 
26.821186  27.404901 3.277805  1 
28.019688  27.427669 4.020895  1 
29.047470  28.299850 3.643268  1 
28.896087  29.141625 2.543970  1 
27.718585  29.137921 1.790977  1 
26.701702  28.259609 2.183447  1 
25.458172  28.045333 1.639345  2 
25.099822  28.531187 0.830643  4 
24.768312  27.083389 2.340808  1 
21.620286  26.437693 1.086412  4 
23.028732  26.794963 0.068167  4 
22.348386  28.055226 1.126908  4 
23.426288  24.421340 4.646251  4 
25.724586  25.302306 5.075063  4 
28.147556  26.775362 4.879514  4 
29.972175  28.318959 4.214843  4 
29.706020  29.812409 2.266063  4 
27.604500  29.795579 0.935503  4 
25.785555  7.623305 3.059360  1 
26.430632  6.580045 3.914762  1 
26.547567  6.828039 5.247159  2 
27.124441  5.909880 6.052608  1 
27.627533  4.691132 5.628805  1 
27.519339  4.410746 4.259576  1 
27.900030  3.302496 3.436758  1 
28.530077  2.065435 3.685408  1 
28.760548  1.184193 2.622425  1 
28.373966  1.518374 1.326727  1 
27.747606  2.737743 1.054079  1 
27.525603  3.606360 2.129129  1 
26.941148  4.849739 2.156485  2 
26.573640  5.323404 1.344669  4 
26.923143  5.361938 3.433443  1 
25.481193  8.487825 3.657309  4 
24.896533  7.212295 2.571316  4 
26.485984  7.965520 2.291375  4 
27.175194  6.191810 7.100920  4 
28.079491  3.995912 6.324757  4 
28.835245  1.795534 4.691941  4 
29.246166  0.230057 2.812010  4 
28.561595  0.820438 0.513796  4 
27.448363  2.994441 0.043175  4 
 %endblock AtomicCoordinatesAndAtomicSpecies

