NumberOfAtoms 96
SpinPolarized yes
#FixSpin .true.
#TotalSpin 
NumberOfSpecies 4

 
MD.TypeOfRun  nose
MD.FinalTimeStep 250
MD.LengthTimeStep 1.0  fs
MD.InitialTemperature 300 K 
MD.TargetTemperature  300  K


%block ChemicalSpeciesLabel
1  6  c
2  7  n
3  8  o
4  1  h
%endblock ChemicalSpeciesLabel

PAO.BasisSize dzp 
 PAO.EnergyShift 0.02 Ry 
 
MeshCutoff          100 Ry
MaxSCFIterations    100  
DM.NumberPulay       3  
DM.Tolerance         1e-3
WriteDenchar	.true.

%block ProjectedDensityOfStates
-10.0 10.0 0.200 500 eV
%endblock ProjectedDensityOfStates
NetCharge 0.00

%block BandLines
1  1.000  1.000 1.000  L
20 0.00   0.00   0.00  \Gamma
25 2.00   0.000  0.00  X
30 2.00   2.00   2.00  \Gamma
%endblock BandLines


LongOutput .true.
WriteCoorXmol .true.
LatticeConstant 1 Ang
%block LatticeVectors
  23.89787 0.0 0.0
  0.0 23.70038 0.0
  0.0 0.0 17.87645
%endblock LatticeVectors


 

#UseSaveData .true.  
%block kgrid_Monkhorst_Pack
1 0 0 0.0 
 0 1 0 0.0 
 0 0 1 0.0 

%endblock kgrid_Monkhorst_Pack
WriteMDXmol .true.
AtomicCoordinatesFormat Ang
%block AtomicCoordinatesAndAtomicSpecies
-1.29926  -0.28909 0.61197  1 
-2.03309  0.92434 0.53994  1 
-3.38283  0.87241 0.09767  1 
-3.98785  -0.32275 -0.29530  1 
-3.20140  -1.47539 -0.31835  1 
-1.85400  -1.51498 0.14568  1 
0.01648  -0.28621 1.14958  1 
0.58898  0.96292 1.48256  1 
-0.08437  2.11373 1.36456  2 
-1.37376  2.11279 0.93473  1 
-1.06527  -2.71650 0.16503  1 
0.21858  -2.71205 0.77789  1 
0.74205  -1.48723 1.30902  1 
2.00167  -1.40179 1.96075  1 
2.60701  -0.18011 2.25898  1 
1.92569  0.99302 1.90365  1 
4.03715  -0.16087 2.79877  1 
4.77787  1.17047 2.52912  1 
4.15389  2.01461 1.40811  1 
2.69738  2.29522 1.83145  1 
-1.49627  -3.93856 -0.43267  1 
-0.72384  -5.10981 -0.47778  1 
0.50571  -5.08812 0.15828  1 
0.95751  -3.92554 0.78020  1 
-2.02189  3.49157 0.94578  1 
-1.36273  4.51832 -0.00623  1 
-1.44898  4.06413 -1.46356  1 
-2.01695  5.90285 0.11233  1 
-5.46765  -0.37535 -0.65210  1 
-6.37658  -0.73786 0.54719  1 
-7.89251  -0.80732 0.21829  1 
-8.23157  -1.88369 -0.81518  1 
-8.73698  -1.04448 1.48168  1 
4.29066  1.34605 0.01499  1 
3.70247  2.17593 -1.13475  1 
3.81962  1.47586 -2.49289  1 
5.25765  1.20007 -2.90159  1 
4.05963  -0.50462 4.30770  1 
5.46432  -0.67980 4.87855  1 
1.29016  -6.20399 0.13227  3 
-1.22199  -6.31851 -1.23699  1 
-2.08889  -7.25142 -0.38970  1 
-2.58045  -8.45283 -1.18850  1 
-3.98541  1.77307 0.05472  4 
-3.67487  -2.38095 -0.68850  4 
2.57478  -2.29420 2.18057  4 
4.58993  -0.94228 2.25781  4 
5.83719  0.96881 2.32369  4 
4.76884  1.78420 3.44118  4 
4.69514  2.96907 1.36933  4 
2.25320  2.98192 1.10439  4 
2.66444  2.79431 2.80610  4 
-2.45867  -3.98300 -0.94255  4 
1.93888  -3.96407 1.24251  4 
-1.95472  3.86663 1.97677  4 
-3.09149  3.44429 0.73161  4 
-0.30429  4.63020 0.26186  4 
-2.49273  3.95568 -1.77798  4 
-0.94327  3.10645 -1.61354  4 
-0.97186  4.79581 -2.12430  4 
-3.07555  5.87310 -0.16956  4 
-1.52079  6.61877 -0.55473  4 
-1.94480  6.29869 1.13018  4 
-5.60030  -1.09457 -1.46898  4 
-5.77152  0.59873 -1.05352  4 
-6.23159  0.01957 1.32907  4 
-6.05361  -1.69254 0.98252  4 
-8.20039  0.16104 -0.19477  4 
-7.86495  -2.86839 -0.50723  4 
-7.80134  -1.64122 -1.79057  4 
-9.31670  -1.96075 -0.95542  4 
-8.44542  -1.96157 2.00508  4 
-9.80127  -1.13483 1.22842  4 
-8.64378  -0.20675 2.18044  4 
3.81597  0.35915 -0.00639  4 
5.35555  1.16596 -0.16895  4 
4.19780  3.15266 -1.17889  4 
2.63748  2.36551 -0.95897  4 
3.34852  2.10641 -3.25685  4 
3.25924  0.53331 -2.47389  4 
5.85091  2.11959 -2.88650  4 
5.29229  0.78458 -3.91293  4 
5.72935  0.47251 -2.23464  4 
3.49849  -1.42803 4.49747  4 
3.54679  0.28555 4.87152  4 
5.95569  -1.55695 4.44626  4 
5.41422  -0.82303 5.96352  4 
6.09660  0.19364 4.69464  4 
2.15571  -5.99106 0.51983  4 
-0.37128  -6.86918 -1.65737  4 
-1.79595  -5.97151 -2.10657  4 
-2.95781  -6.70541 -0.00410  4 
-1.52375  -7.60822 0.47920  4 
-3.13983  -8.13925 -2.07605  4 
-3.24472  -9.06910 -0.57349  4 
-1.74520  -9.08161 -1.51394  4 
 %endblock AtomicCoordinatesAndAtomicSpecies

