NumberOfAtoms 512
SpinPolarized yes
#FixSpin .true.
#TotalSpin 
NumberOfSpecies 4

 
MD.TypeOfRun  nose
MD.FinalTimeStep 21
MD.LengthTimeStep 0.5  fs
MD.InitialTemperature 300 K 
MD.TargetTemperature  300  K


%block ChemicalSpeciesLabel
1  6  C
2  1  H
3  8  O
4  7  N
%endblock ChemicalSpeciesLabel

PAO.BasisSize szp 
 PAO.EnergyShift 0.02 Ry 
 
MeshCutoff          100 Ry
MaxSCFIterations    100  
DM.NumberPulay       3  
DM.Tolerance         1e-3
WriteDenchar	.true.

%block ProjectedDensityOfStates
-10.0 10.0 0.200 500 eV
%endblock ProjectedDensityOfStates
NetCharge 0.00

%block BandLines
1  1.000  1.000 1.000  L
20 0.00   0.00   0.00  \Gamma
25 2.00   0.000  0.00  X
30 2.00   2.00   2.00  \Gamma
%endblock BandLines


LongOutput .true.
WriteCoorXmol .true.
LatticeConstant 1 Ang
%block LatticeVectors
  47.993079 0.0 0.0
  0.0 48.124032 0.0
  0.0 0.0 47.878711
%endblock LatticeVectors


 

#UseSaveData .true.  
%block kgrid_Monkhorst_Pack
1 0 0 0.0 
 0 1 0 0.0 
 0 0 1 0.0 

%endblock kgrid_Monkhorst_Pack
WriteMDXmol .true.
AtomicCoordinatesFormat Ang
%block AtomicCoordinatesAndAtomicSpecies
39.058938  12.069706 1.209966  1 
37.868802  11.374035 1.771758  1 
37.834626  10.153597 2.331455  1 
39.038667  9.243915 2.446409  1 
36.555804  9.561718 2.850592  1 
35.659235  10.423213 3.752121  1 
34.498464  9.637078 4.392968  1 
34.839032  8.632650 5.534248  1 
33.553122  7.914916 5.954690  1 
35.945176  7.616056 5.193134  1 
36.203336  6.503581 6.227151  1 
37.329715  5.601575 5.701058  1 
37.745533  4.447773 6.633624  1 
36.596129  3.459399 6.851994  1 
39.046558  3.718841 6.191955  1 
39.048211  2.970362 4.841504  1 
38.964982  3.869890 3.607298  1 
38.798183  3.158970 2.256475  1 
37.586771  2.222190 2.244891  1 
38.622209  4.225269 1.165635  1 
38.996778  13.139148 1.428353  2 
39.081642  11.934398 0.125411  2 
39.993930  11.704843 1.634527  2 
36.934789  11.939182 1.700121  2 
39.785352  9.435118 1.671496  2 
38.753379  8.192046 2.340905  2 
39.513172  9.369571 3.427920  2 
36.886916  8.700974 3.406218  2 
35.970281  9.144852 2.021816  2 
35.214798  11.220034 3.139823  2 
36.241749  10.921996 4.534980  2 
33.925388  9.138421 3.601575  2 
33.811896  10.383516 4.822897  2 
35.184493  9.224250 6.391714  2 
33.204089  7.235629 5.172692  2 
32.752481  8.634884 6.166706  2 
33.711123  7.335833 6.869217  2 
36.893795  8.162419 5.169593  2 
35.745035  7.158546 4.224694  2 
35.295833  5.901599 6.353354  2 
36.470720  6.935387 7.197054  2 
38.203065  6.203649 5.441784  2 
36.898755  5.179748 4.794755  2 
37.979062  4.902277 7.609241  2 
36.885389  2.425875 6.640432  2 
35.726382  3.686005 6.228521  2 
36.270011  3.494097 7.897380  2 
39.273921  2.974307 6.967987  2 
39.886271  4.425222 6.214015  2 
38.247230  2.226432 4.843172  2 
39.987374  2.403724 4.776351  2 
39.831910  4.539354 3.586589  2 
38.100221  4.513959 3.664057  2 
39.704371  2.582182 2.036500  2 
37.853668  1.240525 2.649512  2 
37.208500  2.067013 1.227747  2 
36.759417  2.619359 2.845104  2 
37.669073  4.764372 1.290500  2 
38.617300  3.766369 0.176094  2 
39.428096  4.962740 1.196502  2 
2.933657  40.010101 39.122922  1 
3.047445  39.090856 38.746039  1 
3.962896  38.700750 38.647258  1 
4.764568  39.229889 38.925361  1 
5.680028  38.839783 38.826580  1 
6.481691  39.368922 39.104682  1 
7.397151  38.978816 39.005902  1 
8.198814  39.507954 39.284004  1 
9.114274  39.117848 39.185223  1 
9.915936  39.646987 39.463325  1 
10.831397  39.256881 39.364545  1 
11.633059  39.786020 39.642647  1 
12.548520  39.395914 39.543867  1 
13.350182  39.925052 39.821968  1 
14.265643  39.534946 39.723188  1 
15.067305  40.064085 40.001290  1 
15.982765  39.673979 39.902510  1 
35.668747  33.304597 8.438237  1 
35.874955  33.773074 9.846915  1 
35.015128  34.687945 10.437261  1 
35.226386  35.118056 11.768243  1 
34.392428  36.053192 12.451893  1 
33.288461  36.615061 11.832254  3 
34.616649  36.470718 13.778692  1 
33.789560  37.361133 14.376461  4 
34.035090  37.736502 15.645622  1 
35.093962  37.264319 16.389370  1 
35.960904  36.346517 15.797007  1 
37.121100  35.825395 16.603721  1 
35.723893  35.933751 14.458951  1 
36.553870  35.008419 13.788813  1 
36.334154  34.583822 12.458262  1 
37.158774  33.654645 11.777614  1 
38.371311  33.000263 12.380248  1 
36.932346  33.259669 10.499316  4 
34.787759  33.764387 7.980316  2 
35.532881  32.218704 8.424835  2 
36.542384  33.560516 7.830741  2 
34.186186  35.053443 9.842918  2 
33.187980  36.294353 10.929796  2 
33.330957  38.452114 16.059654  2 
35.234542  37.608297 17.408052  2 
37.140045  36.256211 17.610140  2 
38.068064  36.084664 16.119000  2 
37.049333  34.738423 16.714492  2 
37.401449  34.609386 14.334789  2 
38.580760  33.284848 13.411064  2 
39.254818  33.255147 11.785669  2 
38.242709  31.912882 12.363813  2 
28.081197  9.229624 10.321316  1 
27.224994  8.884363 11.551939  1 
27.713287  7.554725 12.136008  1 
27.299309  10.023449 12.589017  1 
26.853651  11.359292 12.173051  4 
25.663542  11.881428 11.779261  1 
25.562444  13.112354 11.790532  3 
24.452468  10.990194 11.440804  1 
23.712269  11.519221 10.181377  1 
24.629286  11.463032 8.951962  1 
22.429028  10.734349 9.867935  1 
23.596258  11.036707 12.625100  4 
23.665573  10.258529 13.746197  1 
23.122493  10.665472 14.770030  3 
24.485856  8.946541 13.728505  1 
23.698898  7.828654 14.469526  1 
22.377120  7.507521 13.763611  1 
24.513413  6.535498 14.603446  1 
25.719983  9.248897 14.453243  4 
26.900053  9.783364 14.060616  1 
27.650614  10.177145 14.962083  3 
28.024778  8.433545 9.571120  2 
29.135665  9.355343 10.593290  2 
27.741045  10.155410 9.846457  2 
26.212368  8.717925 11.191650  2 
28.724675  7.644682 12.545602  2 
27.728301  6.775328 11.366201  2 
27.051466  7.207679 12.933940  2 
28.386776  10.181946 12.692338  2 
27.475450  12.107665 12.466652  2 
24.756008  9.971727 11.249803  2 
23.423488  12.566662 10.337875  2 
24.897931  10.430441 8.703141  2 
25.553431  12.025288 9.114077  2 
24.131720  11.901163 8.079765  2 
22.610103  9.654596 9.834329  2 
22.022200  11.031320 8.893178  2 
21.650598  10.929427 10.612250  2 
23.163875  11.934699 12.826098  2 
24.714785  8.616904 12.719882  2 
23.458989  8.167114 15.486923  2 
22.550615  7.126318 12.751994  2 
21.733190  8.389031 13.691893  2 
21.820483  6.745607 14.320992  2 
24.842950  6.168942 13.625894  2 
23.912413  5.746969 15.071170  2 
25.397220  6.682766 15.232223  2 
25.609396  9.352026 15.458308  2 
1.967197  26.381387 4.558265  1 
2.692211  25.334803 4.972779  1 
3.616253  25.399868 6.181465  1 
3.350327  26.191795 7.460509  1 
3.348894  27.628766 7.307988  1 
4.620596  28.072710 6.673253  1 
4.428332  29.620653 6.394421  1 
2.931264  29.958988 5.404566  1 
1.485116  29.919343 5.945572  1 
1.017039  30.499270 7.317037  1 
1.704236  30.165899 8.678358  1 
3.029189  30.855886 9.136680  1 
4.261058  30.635068 8.333289  1 
4.218280  31.455817 6.584375  1 
4.990602  30.899284 4.954309  1 
4.578548  30.960498 3.441590  1 
5.534240  30.179360 2.513329  1 
2.736010  24.221932 4.114044  3 
3.106987  22.920379 4.613117  1 
1.847139  22.089881 5.029872  1 
0.871224  21.502420 4.000307  1 
4.003845  22.120322 3.626120  1 
5.377984  22.559801 3.340937  3 
6.367967  22.480622 4.293316  1 
6.146047  22.425710 5.493995  3 
7.785206  22.570110 3.666697  1 
8.880476  21.457710 3.800846  1 
9.535622  21.110603 5.160518  1 
10.611446  19.988321 5.074490  1 
11.294147  19.585136 6.408751  1 
10.445848  18.997900 7.543314  1 
9.259997  19.798731 8.166397  1 
9.052566  21.132096 8.923304  1 
9.193432  22.487551 8.909588  1 
9.869404  23.628039 8.130920  1 
9.036918  24.778949 7.435843  1 
9.944819  25.923742 6.847871  1 
9.176594  27.087360 6.192610  1 
10.077760  28.153738 5.527568  1 
9.355702  29.305928 4.804551  1 
8.578929  28.888453 3.556573  1 
7.404996  27.949263 3.761554  1 
1.962409  27.312843 5.081760  2 
1.399591  26.394963 3.637524  2 
4.587629  25.714713 5.784426  2 
3.739566  24.422829 6.614726  2 
4.189341  26.019885 8.148379  2 
2.425960  25.913838 7.961001  2 
3.173840  28.060524 8.286804  2 
2.495511  27.953758 6.746719  2 
4.797367  27.693971 5.663682  2 
5.523388  27.968707 7.301206  2 
5.643752  29.593145 6.262345  2 
5.307750  30.284335 6.946865  2 
2.964617  29.417822 4.465138  2 
2.849776  31.084084 5.025613  2 
1.234786  28.883738 5.893035  2 
0.829587  30.359147 5.148353  2 
0.000851  30.083978 7.406711  2 
0.879667  31.587911 7.264055  2 
1.697932  29.079663 8.792104  2 
1.010402  30.479793 9.469784  2 
3.306822  30.472232 10.137999  2 
2.968049  31.920428 9.092815  2 
4.296043  29.532089 8.435211  2 
5.257550  30.770872 8.760799  2 
4.088788  32.567345 6.615951  2 
3.068772  31.212918 6.794869  2 
4.951216  29.702670 4.729063  2 
6.086613  30.854420 5.034407  2 
4.561203  32.007940 3.280821  2 
3.635323  30.487741 3.122334  2 
6.507853  30.654843 2.521205  2 
5.130258  30.152277 1.499539  2 
5.619394  29.120590 2.764526  2 
3.701451  23.020253 5.511282  2 
1.251030  22.684483 5.731670  2 
2.223532  21.225386 5.590677  2 
0.475307  22.221507 3.279082  2 
0.002076  21.094743 4.541988  2 
1.307167  20.656527 3.456725  2 
3.505902  22.081468 2.650686  2 
4.083848  21.090822 3.990944  2 
8.205701  23.538937 3.958408  2 
7.612868  22.647726 2.582310  2 
9.708059  21.788929 3.156300  2 
8.499865  20.531648 3.357529  2 
8.742472  20.785834 5.820701  2 
10.010283  21.994379 5.595336  2 
11.416701  20.321012 4.399137  2 
10.194123  19.091534 4.596418  2 
11.874360  20.419814 6.806979  2 
12.041916  18.810853 6.147554  2 
11.118288  18.622762 8.333582  2 
10.009118  18.059751 7.146421  2 
8.881653  19.054735 8.898525  2 
8.462935  19.775614 7.424675  2 
8.431318  20.854927 9.794142  2 
8.697415  22.944632 9.779502  2 
10.591239  23.223087 7.423555  2 
10.454707  24.158084 8.899536  2 
8.329883  25.238105 8.141187  2 
8.438150  24.350336 6.622927  2 
10.595034  25.483774 6.081144  2 
10.580443  26.354182 7.624648  2 
8.496334  27.583212 6.893241  2 
8.569410  26.586983 5.461458  2 
10.765356  27.684974 4.812794  2 
10.695819  28.604928 6.312409  2 
10.114569  30.037622 4.474057  2 
8.712985  29.860711 5.499056  2 
9.260052  28.444417 2.826373  2 
8.208802  29.804756 3.088742  2 
7.640545  26.951651 4.090428  2 
6.943631  27.727424 2.798648  2 
6.681563  28.366001 4.465068  2 
29.735095  32.460108 38.390832  1 
28.774722  32.213450 38.261019  1 
28.532051  31.293939 37.951808  1 
29.249752  30.621088 37.772409  1 
29.007080  29.701578 37.463198  1 
29.724772  29.028729 37.283799  1 
29.482100  28.109219 36.974588  1 
30.199802  27.436368 36.795189  1 
29.957130  26.516858 36.485978  1 
30.674822  25.844009 36.306579  1 
30.432150  24.924499 35.997368  1 
31.149851  24.251647 35.817969  1 
30.907180  23.332137 35.508758  1 
31.624881  22.659286 35.329359  1 
31.382209  21.739776 35.020148  1 
32.099901  21.066927 34.840749  1 
31.857229  20.147417 34.531538  1 
32.574930  19.474565 34.352139  1 
32.332259  18.555055 34.042928  1 
33.049950  17.882206 33.863529  1 
32.807279  16.962696 33.554318  1 
33.524980  16.289845 33.374919  1 
33.282308  15.370335 33.065708  1 
34.000000  14.697486 32.886310  1 
33.757328  13.777976 32.577098  1 
34.475030  13.105124 32.397700  1 
34.232358  12.185614 32.088488  1 
34.950050  11.512766 31.909090  1 
34.707378  10.593255 31.599878  1 
35.425079  9.920404 31.420480  1 
35.182408  9.000894 31.111268  1 
35.900099  8.328045 30.931870  3 
34.485343  16.536506 33.504732  3 
35.203045  15.863655 33.325334  1 
34.960373  14.944145 33.016122  1 
35.678064  14.271296 32.836724  1 
35.435393  13.351786 32.527512  1 
36.153094  12.678934 32.348114  1 
35.910422  11.759424 32.038902  1 
36.628114  11.086575 31.859504  1 
36.385442  10.167065 31.550292  1 
37.103144  9.494214 31.370894  1 
36.860472  8.574704 31.061682  1 
37.578164  7.901855 30.882284  1 
37.335492  6.982345 30.573073  1 
38.053193  6.309493 30.393674  1 
37.810522  5.389983 30.084463  1 
38.528223  4.717132 29.905064  1 
38.285551  3.797622 29.595852  1 
39.003243  3.124773 29.416454  1 
38.760571  2.205263 29.107243  1 
39.478272  1.532412 28.927844  1 
39.235601  0.612901 28.618633  1 
39.953292  -0.059947 28.439234  1 
36.163408  16.110316 33.455146  1 
36.881109  15.437465 33.275748  3 
36.406079  17.029826 33.764358  1 
37.366452  17.276485 33.894170  1 
38.084144  16.603636 33.714772  1 
37.841472  15.684126 33.405561  1 
38.559173  15.011275 33.226162  1 
38.316502  14.091764 32.916950  1 
39.034193  13.418916 32.737552  1 
38.791522  12.499405 32.428341  1 
39.509223  11.826554 32.248942  1 
39.266551  10.907044 31.939731  3 
8.130650  13.628895 37.105692  1 
9.338085  14.246171 36.421128  1 
9.395770  14.014057 34.896917  1 
10.597789  14.637047 34.184028  1 
11.548331  15.363322 34.932183  1 
12.685524  15.861852 34.295194  1 
13.758666  16.535980 34.838503  4 
13.857795  16.745766 35.815836  2 
14.695212  16.752730 33.865808  1 
16.035547  17.287968 34.022194  1 
16.440442  18.048101 35.094630  1 
17.685182  18.544194 35.231571  4 
18.615582  18.252475 34.296259  1 
19.915487  18.767406 34.441334  1 
20.212836  19.791237 35.539651  1 
21.312196  19.296351 36.490647  1 
20.531519  21.195975 34.963491  1 
19.400483  21.847869 34.143516  1 
18.122808  22.117494 34.927774  1 
20.929908  18.380752 33.542142  1 
20.650432  17.544960 32.469583  1 
19.347737  17.092738 32.278213  1 
18.313076  17.443182 33.176269  1 
16.973689  17.009618 33.004029  1 
16.521929  16.182854 31.796608  1 
15.020452  16.319646 31.443475  1 
14.197036  16.260530 32.679756  1 
12.919394  15.705848 32.937199  1 
11.949553  15.047340 32.168430  1 
10.801387  14.497918 32.790254  1 
9.853563  13.743627 31.885167  1 
10.225108  12.257977 31.758210  1 
9.265714  11.445043 30.858276  1 
7.843881  11.478196 31.424408  1 
9.339092  11.923754 29.394562  1 
8.441220  11.156570 28.435523  1 
8.236522  13.731627 38.192415  2 
8.039305  12.564066 36.876222  2 
7.207214  14.137127 36.813440  2 
10.237631  13.825100 36.887537  2 
9.329351  15.322054 36.636023  2 
8.477431  14.410018 34.447996  2 
9.417966  12.931145 34.720923  2 
11.438094  15.519979 35.996397  2 
15.764768  18.311157 35.903215  2 
19.335262  19.908787 36.184103  2 
22.287629  19.200207 36.003717  2 
21.047210  18.316317 36.905439  2 
21.426567  19.986775 37.333997  2 
21.422911  21.144417 34.324408  2 
20.787999  21.871658 35.789418  2 
19.163535  21.231980 33.269042  2 
19.763435  22.806396 33.749986  2 
17.731662  21.215612 35.400848  2 
17.342209  22.495598 34.258416  2 
18.287234  22.867851 35.707242  2 
21.948534  18.741859 33.670834  2 
21.431388  17.255031 31.778198  2 
19.162153  16.446160 31.428401  2 
16.750688  15.131133 32.013731  2 
17.081103  16.471400 30.899981  2 
14.735089  15.539377 30.731104  2 
14.850234  17.289427 30.957529  2 
12.103850  14.936423 31.098011  2 
9.875887  14.217098 30.895481  2 
8.830432  13.879130 32.242743  2 
10.247464  11.799214 32.754929  2 
11.247127  12.163987 31.365621  2 
9.605072  10.399823 30.883677  2 
7.427718  12.489565 31.411546  2 
7.836112  11.119687 32.459588  2 
7.165599  10.839297 30.853285  2 
10.375106  11.831562 29.044200  2 
9.073958  12.983038 29.322610  2 
8.629047  10.080421 28.488126  2 
8.628974  11.487303 27.408685  2 
7.383532  11.340706 28.646329  2 
22.586463  18.151528 4.777204  1 
22.035860  19.460323 4.775936  1 
22.911029  20.561285 4.570851  1 
24.287039  20.392787 4.406276  1 
24.805348  19.102612 4.526350  1 
23.992642  17.943152 4.692303  1 
21.725477  17.024768 4.873731  1 
20.348713  17.264570 5.088148  1 
19.836457  18.500110 5.140319  4 
20.638103  19.582919 4.960958  1 
24.529716  16.611896 4.765983  1 
23.651346  15.492940 4.783018  1 
22.233878  15.709471 4.797285  1 
21.288540  14.648850 4.786577  1 
19.931656  14.855103 5.039965  1 
19.505498  16.165290 5.301665  1 
19.002081  13.650441 5.187351  1 
17.733539  13.951437 6.020446  1 
17.853854  15.197103 6.910630  1 
18.161745  16.379237 5.968746  1 
25.928429  16.341946 4.850633  1 
26.477058  15.056357 4.980153  1 
25.601840  13.983840 4.956972  1 
24.228752  14.196405 4.847675  1 
19.884138  20.906837 4.958116  1 
19.175254  21.244650 6.291681  1 
20.177047  21.374680 7.439304  1 
18.374748  22.551724 6.193033  1 
25.189533  21.572716 4.069895  1 
25.403728  21.768884 2.549532  1 
26.324907  22.959722 2.169562  1 
27.749787  22.808727 2.706694  1 
26.384711  23.167483 0.646806  1 
18.886387  15.012731 8.053584  1 
19.012485  16.229159 8.981469  1 
20.064065  16.032617 10.078700  1 
19.755228  14.864091 11.000759  1 
18.623634  13.075535 3.801061  1 
17.842964  11.765748 3.869790  1 
26.094046  12.718068 5.086424  3 
27.965491  14.883189 5.180374  1 
28.746038  14.784789 3.868581  1 
30.242275  14.620185 4.107913  1 
22.525820  21.574455 4.535692  2 
25.885521  19.003234 4.458711  2 
21.607478  13.622077 4.655474  2 
19.564127  12.882784 5.738361  2 
17.464808  13.069348 6.616038  2 
16.883275  14.116958 5.343502  2 
16.874745  15.369223 7.376645  2 
18.151622  17.301275 6.557993  2 
17.385019  16.479283 5.202714  2 
26.639662  17.167649 4.873620  2 
23.592188  13.317204 4.857387  2 
19.131084  20.842587 4.160053  2 
20.525269  21.743950 4.674672  2 
18.467174  20.442517 6.536404  2 
20.894826  22.178433 7.242303  2 
20.733630  20.445784 7.590159  2 
19.660918  21.605669 8.377297  2 
19.025462  23.406747 5.977425  2 
17.864231  22.760145 7.141515  2 
17.608805  22.499266 5.412973  2 
26.149341  21.429515 4.580218  2 
24.754181  22.485550 4.493579  2 
24.423230  21.933857 2.083199  2 
25.800742  20.845315 2.108356  2 
25.900766  23.874866 2.600545  2 
28.202266  21.863316 2.389931  2 
27.764673  22.853304 3.798970  2 
28.390344  23.622552 2.345462  2 
26.731009  22.270113 0.122579  2 
27.072820  23.983629 0.391015  2 
25.402161  23.439720 0.247775  2 
19.883628  14.784227 7.662360  2 
18.589365  14.134421 8.637199  2 
18.040589  16.450992 9.437000  2 
19.305669  17.115167 8.406946  2 
20.125590  16.949872 10.677049  2 
21.051504  15.886870 9.624267  2 
18.755402  14.962944 11.434671  2 
20.482152  14.821716 11.817108  2 
19.808741  13.910356 10.467661  2 
19.525151  12.902273 3.200376  2 
18.026035  13.812704 3.249042  2 
18.462747  10.961931 4.279006  2 
17.522741  11.465645 2.866007  2 
16.943206  11.853226 4.485647  2 
25.350992  12.096323 5.164032  2 
28.155939  13.999516 5.802077  2 
28.339076  15.732312 5.768109  2 
28.582518  15.687616 3.268580  2 
28.384529  13.936638 3.275599  2 
30.642096  15.442189 4.710769  2 
30.778831  14.612224 3.153280  2 
30.460516  13.679126 4.623371  2 
 %endblock AtomicCoordinatesAndAtomicSpecies

