NumberOfAtoms 160
SpinPolarized yes
#FixSpin .true.
#TotalSpin 
NumberOfSpecies 4

 
MD.TypeOfRun  nose
MD.FinalTimeStep 10
MD.LengthTimeStep 1.0  fs
MD.InitialTemperature 300 K 
MD.TargetTemperature  300  K


%block ChemicalSpeciesLabel
1  6  C
2  8  O
3  1  H
4  7  N
%endblock ChemicalSpeciesLabel

PAO.BasisSize szp 
 PAO.EnergyShift 0.02 Ry 
 
MeshCutoff          100 Ry
MaxSCFIterations    100  
DM.NumberPulay       3  
DM.Tolerance         1e-3
WriteDenchar	.true.

%block ProjectedDensityOfStates
-10.0 10.0 0.200 500 eV
%endblock ProjectedDensityOfStates
NetCharge 0.00

%block BandLines
1  1.000  1.000 1.000  L
20 0.00   0.00   0.00  \Gamma
25 2.00   0.000  0.00  X
30 2.00   2.00   2.00  \Gamma
%endblock BandLines


LongOutput .true.
WriteCoorXmol .true.
LatticeConstant 1 Ang
%block LatticeVectors
  34.750524 0.0 0.0
  0.0 32.490714 0.0
  0.0 0.0 37.617909
%endblock LatticeVectors


 

#UseSaveData .true.  
%block kgrid_Monkhorst_Pack
1 0 0 0.0 
 0 1 0 0.0 
 0 0 1 0.0 

%endblock kgrid_Monkhorst_Pack
WriteMDXmol .true.
AtomicCoordinatesFormat Ang
%block AtomicCoordinatesAndAtomicSpecies
20.604466  14.190816 5.706035  1 
21.306771  13.070540 5.494953  1 
22.614898  12.770565 6.214555  1 
22.936115  13.137843 7.662224  1 
23.042466  14.553681 7.931007  1 
24.028753  15.173351 7.003402  1 
23.925034  16.732455 7.266610  1 
22.216541  17.348722 7.074876  1 
21.080950  17.142131 8.101209  1 
21.226055  17.278655 9.649315  1 
22.327172  16.551884 10.483533  1 
23.797101  17.075872 10.563440  1 
24.607932  17.112719 9.317289  1 
24.012100  18.423572 8.028564  1 
24.053791  18.388624 6.141671  1 
23.118713  18.902738 4.991380  1 
23.564593  18.442221 3.586278  1 
20.900498  12.269475 4.412797  2 
21.278931  10.879310 4.342316  1 
20.178291  9.957105 4.965822  1 
18.829220  9.704792 4.277438  1 
21.646607  10.418299 2.903256  1 
22.856726  10.928424 2.241355  2 
24.113794  10.568671 2.669981  1 
24.349534  10.152579 3.794787  2 
25.196620  10.848546 1.593699  1 
26.128232  9.751629 0.974087  1 
27.197638  9.012148 1.815482  1 
28.028336  7.972296 1.007418  1 
29.107262  7.187142 1.800098  1 
28.680487  6.281338 2.961595  1 
27.911356  6.852037 4.193887  1 
28.154247  7.893465 5.312024  1 
28.433977  9.190160 5.624469  1 
28.897626  10.515124 4.997193  1 
28.003925  11.819262 5.033024  1 
28.752634  13.091531 4.484102  1 
27.934392  14.395980 4.533438  1 
28.639267  15.616775 3.897548  1 
27.837053  16.930980 3.866256  1 
26.609668  16.907447 2.956266  1 
25.496995  15.945964 3.330059  1 
20.901267  14.920433 6.428010  3 
19.740761  14.480011 5.122507  3 
23.398133  13.194232 5.576286  3 
22.777829  11.708722 6.273464  3 
23.945143  12.769103 7.891471  3 
22.238873  12.718237 8.383329  3 
23.294557  14.668724 8.979030  3 
22.084789  15.030019 7.861303  3 
23.772872  15.118148 5.942552  3 
25.082024  14.887684 7.174250  3 
24.992448  16.750583 6.670165  3 
25.016517  17.201295 7.595091  3 
21.836043  17.116966 6.085933  3 
22.129271  18.535430 7.088793  3 
20.712336  16.169949 7.862698  3 
20.230938  17.799954 7.779568  3 
20.275757  16.851987 10.007135  3 
21.204341  18.331876 9.960877  3 
22.239397  15.482065 10.281870  3 
22.018188  16.609334 11.535920  3 
24.381303  16.408501 11.226942  3 
23.846247  18.103643 10.846604  3 
24.551882  16.030664 9.084500  3 
25.700422  17.116570 9.342859  3 
24.031706  19.473078 8.417681  3 
23.003632  18.124224 8.592531  3 
23.796864  17.315941 5.624457  3 
25.088112  18.325639 5.773047  3 
23.162779  19.949707 5.150115  3 
22.077000  18.545170 4.945816  3 
24.518829  18.896622 3.347485  3 
22.812371  18.721382 2.846052  3 
23.615323  17.357366 3.477364  3 
22.171962  10.705179 4.927326  3 
19.958119  10.309578 5.980073  3 
20.634666  8.964908 5.069714  3 
18.278575  10.606804 3.999652  3 
18.183324  9.149286 4.976915  3 
18.931928  9.064377 3.394045  3 
20.820742  10.674304 2.229953  3 
21.738191  9.326980 2.904266  3 
25.803290  11.685396 1.957250  3 
24.643520  11.249691 0.730691  3 
26.688842  10.265199 0.179100  3 
25.506824  9.001516 0.473921  3 
26.675300  8.500127 2.612602  3 
27.897690  9.724866 2.259767  3 
28.557090  8.496498 0.194491  3 
27.363533  7.260459 0.499222  3 
29.885328  7.864504 2.157469  3 
29.610424  6.530763 1.063287  3 
29.550892  5.687318 3.288651  3 
28.023260  5.505464 2.520625  3 
27.749940  5.920166 4.775478  3 
26.898639  7.051306 3.846481  3 
27.874044  7.363765 6.240483  3 
28.352792  9.361093 6.708857  3 
29.253243  10.345568 3.982213  3 
29.783257  10.790164 5.592431  3 
27.667390  12.041150 6.055640  3 
27.101022  11.654250 4.432525  3 
29.016195  12.906281 3.435084  3 
29.676262  13.269342 5.039056  3 
27.624968  14.654369 5.551769  3 
27.045928  14.137816 3.987896  3 
28.953289  15.388508 2.871530  3 
29.552086  15.811864 4.472220  3 
28.496951  17.731105 3.485708  3 
27.566678  17.247532 4.881096  3 
26.914820  16.707391 1.926144  3 
26.199564  17.920947 2.946036  3 
25.722152  14.896473 3.247928  3 
24.688551  16.023891 2.602319  3 
25.139821  16.127912 4.345579  3 
4.105252  29.010005 26.976271  1 
5.395821  28.958196 26.206161  1 
5.357338  28.673191 24.838821  1 
6.545925  28.637037 24.136538  1 
7.753321  28.866865 24.689264  4 
7.802195  29.147719 26.002325  1 
9.041763  29.407375 26.571917  1 
9.182202  29.718764 27.926057  1 
8.060611  29.758173 28.741128  1 
6.804203  29.496257 28.196028  1 
6.650108  29.199526 26.820908  1 
3.240597  28.845210 26.324290  3 
3.978607  29.993452 27.440380  3 
4.090238  28.233877 27.748124  3 
4.421401  28.486625 24.323054  3 
6.559948  28.420192 23.072250  3 
9.925094  29.373456 25.938482  3 
10.166888  29.929079 28.334873  3 
8.158906  29.996178 29.797009  3 
5.941755  29.531779 28.856318  3 
29.397682  27.777667 1.857520  1 
28.043347  27.154666 1.739735  1 
26.957448  27.973169 1.776219  4 
25.717318  27.447887 1.672756  1 
25.439762  26.098869 1.527260  1 
26.541772  25.233400 1.486657  1 
26.690316  23.815654 1.352102  1 
25.786326  22.742726 1.208110  1 
26.279230  21.437088 1.098594  1 
27.649714  21.190695 1.130561  1 
28.566209  22.236434 1.271941  1 
28.055211  23.535142 1.380345  1 
28.709627  24.734589 1.526613  4 
29.712747  24.832637 1.577662  3 
27.818925  25.781212 1.593865  1 
29.321937  28.864319 1.962523  3 
29.991121  27.558781 0.964551  3 
29.918128  27.382600 2.735341  3 
24.910429  28.174828 1.711572  3 
24.421839  25.738704 1.449400  3 
24.716077  22.924301 1.182049  3 
25.583983  20.608566 0.987568  3 
28.013555  20.169273 1.043990  3 
29.633088  22.040172 1.296795  3 
 %endblock AtomicCoordinatesAndAtomicSpecies

