NumberOfAtoms 487
SpinPolarized yes
#FixSpin .true.
#TotalSpin 
NumberOfSpecies 4

 
MD.TypeOfRun  nose
MD.FinalTimeStep 21
MD.LengthTimeStep 0.5  fs
MD.InitialTemperature 300 K 
MD.TargetTemperature  300  K


%block ChemicalSpeciesLabel
1  6  C
2  1  H
3  7  N
4  8  O
%endblock ChemicalSpeciesLabel

PAO.BasisSize szp 
 PAO.EnergyShift 0.02 Ry 
 
MeshCutoff          100 Ry
MaxSCFIterations    100  
DM.NumberPulay       3  
DM.Tolerance         1e-3
WriteDenchar	.true.

%block ProjectedDensityOfStates
-10.0 10.0 0.200 500 eV
%endblock ProjectedDensityOfStates
NetCharge 0.00

%block BandLines
1  1.000  1.000 1.000  L
20 0.00   0.00   0.00  \Gamma
25 2.00   0.000  0.00  X
30 2.00   2.00   2.00  \Gamma
%endblock BandLines


LongOutput .true.
WriteCoorXmol .true.
LatticeConstant 1 Ang
%block LatticeVectors
  37.576063 0.0 0.0
  0.0 37.982792 0.0
  0.0 0.0 37.986676
%endblock LatticeVectors


 

#UseSaveData .true.  
%block kgrid_Monkhorst_Pack
1 0 0 0.0 
 0 1 0 0.0 
 0 0 1 0.0 

%endblock kgrid_Monkhorst_Pack
WriteMDXmol .true.
AtomicCoordinatesFormat Ang
%block AtomicCoordinatesAndAtomicSpecies
29.363663  8.773364 2.530003  1 
28.224137  9.705459 2.750614  1 
27.670703  10.042257 3.927124  1 
28.109546  9.474270 5.259512  1 
26.509567  10.991223 4.007356  1 
26.582743  12.310962 3.225244  1 
25.437859  13.286831 3.561400  1 
25.468299  13.998803 4.946878  1 
24.200593  14.846122 5.089887  1 
25.634940  13.057383 6.154908  1 
25.508692  13.696504 7.550983  1 
25.700739  12.598989 8.608195  1 
25.641389  13.071945 10.073334  1 
24.263781  13.641464 10.424818  1 
26.090954  11.994873 11.101384  1 
25.262418  10.697148 11.217067  1 
25.341594  9.772770 10.001091  1 
24.405302  8.555704 10.008751  1 
22.940804  8.957511 10.206258  1 
24.551227  7.823011 8.667199  1 
29.990028  9.144925 1.714607  2 
28.979746  7.787310 2.255432  2 
29.999094  8.676298 3.409999  2 
27.808977  10.141696 1.837245  2 
28.558573  8.482187 5.166059  2 
27.260813  9.360876 5.941966  2 
28.837989  10.144667 5.733059  2 
26.439423  11.211089 5.059009  2 
25.576019  10.464329 3.774214  2 
26.512760  12.082993 2.152635  2 
27.546880  12.810265 3.373941  2 
24.478472  12.775776 3.413836  2 
25.465383  14.079947 2.797468  2 
26.326004  14.683533 4.938525  2 
23.312811  14.217192 5.195086  2 
24.060520  15.494519 4.215650  2 
24.265481  15.500138 5.964366  2 
26.665445  12.687544 6.140017  2 
24.931675  12.228396 6.081096  2 
24.508720  14.130583 7.667188  2 
26.249268  14.492941 7.677070  2 
26.634813  12.062878 8.427791  2 
24.859570  11.933559 8.421941  2 
26.370662  13.891838 10.167546  2 
23.833843  13.178959 11.318039  2 
23.540157  13.514224 9.614443  2 
24.346328  14.715082 10.627103  2 
26.073390  12.472191 12.091388  2 
27.142753  11.736782 10.923383  2 
24.226008  10.953468 11.451928  2 
25.639772  10.137717 12.084242  2 
26.380439  9.459511 9.849949  2 
25.062787  10.302300 9.102357  2 
24.705328  7.873077 10.812651  2 
22.707501  9.055947 11.271386  2 
22.258614  8.208274 9.787913  2 
22.712625  9.914790 9.722455  2 
24.165354  8.437509 7.837629  2 
23.990397  6.887497 8.676617  2 
25.597447  7.592277 8.451664  2 
2.933225  29.999366 27.110483  1 
3.051283  29.117868 26.653291  1 
3.968219  28.740096 26.524805  1 
4.767105  29.243821 26.853513  1 
5.684050  28.866050 26.725028  1 
6.482927  29.369774 27.053734  1 
7.399872  28.992003 26.925249  1 
8.198749  29.495728 27.253956  1 
9.115694  29.117956 27.125471  1 
9.914571  29.621681 27.454177  1 
10.831516  29.243909 27.325692  1 
11.630392  29.747634 27.654399  1 
12.547337  29.369862 27.525914  1 
13.346214  29.873587 27.854620  1 
14.263159  29.495815 27.726135  1 
15.062036  29.999540 28.054842  1 
15.978981  29.621768 27.926357  1 
28.014972  25.090046 5.121621  1 
27.683989  26.302098 4.295362  1 
28.511324  27.424977 4.378933  1 
28.206274  28.530608 3.609665  1 
27.154092  28.595564 2.770125  3 
26.354727  27.519575 2.677055  1 
25.282165  27.573376 1.796658  1 
24.408586  26.496676 1.629455  1 
24.596845  25.338802 2.369555  1 
25.662969  25.259967 3.264799  1 
26.564883  26.338527 3.426072  1 
28.939236  25.231976 5.692110  2 
28.163162  24.218501 4.475824  2 
27.212428  24.885694 5.837525  2 
29.381953  27.442838 5.025839  2 
28.824051  29.423398 3.644378  2 
25.127130  28.480415 1.217081  2 
23.587232  26.569581 0.921618  2 
23.921005  24.496148 2.249701  2 
25.787360  24.342467 3.833817  2 
25.336891  6.264188 4.776394  1 
26.373970  5.290599 4.190464  1 
27.362104  6.082113 3.327563  1 
27.090662  4.529908 5.324603  1 
26.269269  3.717232 6.230686  3 
25.488752  2.617308 6.072515  1 
25.176680  2.001781 7.096851  4 
25.098117  2.086379 4.679292  1 
23.609048  1.643682 4.654538  1 
22.684974  2.839928 4.920286  1 
23.198946  0.998252 3.321791  1 
25.996595  0.960203 4.429725  3 
27.256179  0.988238 3.900685  1 
27.990924  0.024093 4.099053  4 
27.753214  2.247356 3.150973  1 
28.533770  1.821390 1.875289  1 
27.632905  1.072262 0.887467  1 
29.167443  3.018448 1.154781  1 
28.655453  2.924457 4.082227  3 
28.437711  3.818788 5.074768  1 
29.368768  3.991479 5.871233  4 
24.811050  6.800269 3.979006  2 
25.813384  7.012000 5.420919  2 
24.584717  5.735040 5.370118  2 
25.834269  4.624135 3.521532  2 
27.966429  6.764270 3.934372  2 
26.830792  6.677687 2.577038  2 
28.039010  5.413536 2.789096  2 
27.408460  5.346201 5.996207  2 
26.511984  3.826595 7.211515  2 
25.237860  2.840086 3.918838  2 
23.433347  0.901216 5.443772  2 
22.765454  3.588973 4.124811  2 
22.921213  3.326636 5.870950  2 
21.639920  2.515343 4.972864  2 
23.472396  1.623832 2.465252  2 
22.113300  0.843856 3.284555  2 
23.666146  0.016748 3.193776  2 
25.864782  0.146078 5.024343  2 
26.939178  2.908427 2.870400  2 
29.351301  1.144437 2.159165  2 
26.815356  1.709589 0.535028  2 
27.198222  0.175076 1.337975  2 
28.209285  0.747873 0.013632  2 
28.415551  3.770132 0.893638  2 
29.655393  2.697070 0.227223  2 
29.933596  3.497402 1.772660  2 
29.549280  2.461292 4.222121  2 
3.855359  9.953425 7.084607  1 
3.671244  11.251052 7.358598  1 
3.366765  12.284921 6.282765  1 
2.510633  12.047122 5.040062  1 
3.061964  11.119863 4.078618  1 
4.435710  11.545870 3.693207  1 
4.997693  10.371310 2.790198  1 
4.917349  8.755460 3.637588  1 
3.630235  7.926490 3.841921  1 
2.518595  7.704152 2.769006  1 
1.836263  8.862515 1.975790  1 
2.516752  9.548541 0.747806  1 
3.786145  10.293156 0.962009  1 
5.293365  9.168572 1.406713  1 
6.786506  9.506938 2.510960  1 
7.663512  8.660015 3.498602  1 
8.684907  9.505098 4.290929  1 
3.986058  11.667733 8.664391  4 
3.446760  12.895380 9.196159  1 
2.121477  12.638994 9.988953  1 
2.103066  11.946690 11.359319  1 
4.469658  13.689821 10.057062  1 
5.648103  14.310818 9.433878  4 
5.527299  15.392618 8.592167  1 
4.495771  15.675034 8.000487  4 
6.874868  16.141427 8.411692  1 
7.100960  17.649302 8.772586  1 
6.396157  18.792478 8.001349  1 
6.768759  20.217580 8.505899  1 
6.082129  21.406001 7.781272  1 
4.555385  21.540698 7.832268  1 
3.623853  20.414857 7.284058  1 
3.351839  19.712057 5.932807  1 
3.862909  18.983622 4.900587  1 
5.193732  18.509679 4.293738  1 
5.550139  16.976137 4.145480  1 
6.883426  16.730705 3.343821  1 
7.253586  15.249044 3.140832  1 
8.615227  15.020301 2.444300  1 
9.059582  13.555667 2.273837  1 
9.374305  12.828484 3.580460  1 
8.223092  12.627857 4.548279  1 
3.754311  9.561154 6.095874  2 
4.189454  9.225173 7.811348  2 
4.344313  12.654924 5.954379  2 
2.824709  13.115140 6.700422  2 
2.463536  12.987182 4.473730  2 
1.497136  11.723547 5.264405  2 
2.370656  11.064334 3.245462  2 
3.054476  10.119386 4.463187  2 
5.166849  11.559914 4.505096  2 
4.492078  12.469975 3.090689  2 
5.824388  11.214696 2.472833  2 
5.330492  10.785856 1.678244  2 
5.460179  8.789343 4.576037  2 
5.490394  7.883601 3.065253  2 
3.199254  8.359286 4.716476  2 
3.951039  6.917821 4.213911  2 
1.708283  7.258657 3.367399  2 
2.807638  6.925206 2.050316  2 
1.416148  9.557625 2.706002  2 
0.931008  8.443004 1.516644  2 
1.834026  10.321441 0.343552  2 
2.838037  8.842022 0.015331  2 
3.394645  11.024044 1.697336  2 
4.119824  11.070396 0.270084  2 
5.532244  8.410094 0.618737  2 
4.366362  8.563646 1.853264  2 
6.560884  10.130262 3.533083  2 
7.379859  10.347383 2.122044  2 
8.091832  7.955569 2.832584  2 
7.179585  8.162804 4.355159  2 
9.416316  9.916598 3.605526  2 
9.174126  8.887287 5.046362  2 
8.228039  10.295800 4.888766  2 
3.180297  13.566184 8.390504  2 
1.427307  12.088284 9.343768  2 
1.674189  13.625562 10.162567  2 
2.611487  10.980072 11.393369  2 
1.053170  11.755645 11.635466  2 
2.506976  12.589238 12.149921  2 
4.870083  13.024834 10.830613  2 
3.935365  14.497643 10.568259  2 
7.213480  15.952587 7.386891  2 
7.588631  15.602016 9.052939  2 
8.177555  17.822099 8.627240  2 
6.910784  17.789186 9.841814  2 
5.330998  18.645761 8.120990  2 
6.636734  18.742876 6.935942  2 
7.854816  20.362999 8.385265  2 
6.590723  20.301511 9.586732  2 
6.398591  21.449524 6.737301  2 
6.490475  22.324564 8.246451  2 
4.269769  22.519782 7.411261  2 
4.293393  21.663477 8.902159  2 
2.629463  20.845137 7.526405  2 
3.676123  19.605247 8.010553  2 
2.251323  19.731248 5.834695  2 
3.064192  18.645512 4.222767  2 
6.026486  19.033250 4.760420  2 
5.148487  18.868122 3.252696  2 
4.744470  16.429509 3.635256  2 
5.650757  16.531259 5.142989  2 
7.705441  17.204048 3.895598  2 
6.832240  17.188616 2.353681  2 
6.478884  14.697685 2.597375  2 
7.267177  14.869593 4.145553  2 
9.413052  15.555630 2.973758  2 
8.553821  15.455730 1.440220  2 
9.987034  13.542257 1.673723  2 
8.330238  12.993287 1.678024  2 
10.187083  13.338882 4.103123  2 
9.773146  11.846488 3.311982  2 
7.819408  13.515593 5.004169  2 
8.580472  12.104703 5.435888  2 
7.395803  12.094660 4.075786  2 
28.550152  29.892271 25.896111  1 
29.169180  29.109144 25.955476  1 
28.800321  28.179690 25.963125  1 
27.812433  28.033364 25.911409  1 
27.443573  27.103910 25.919058  1 
26.455695  26.957580 25.867342  1 
26.086836  26.028126 25.874991  1 
25.098948  25.881799 25.823274  1 
24.730088  24.952346 25.830923  1 
23.742210  24.806016 25.779207  1 
23.373351  23.876562 25.786856  1 
22.385463  23.730235 25.735139  1 
22.016603  22.800782 25.742788  1 
21.028716  22.654455 25.691072  1 
20.659856  21.725001 25.698721  1 
19.671978  21.578671 25.647005  1 
19.303118  20.649217 25.654654  1 
18.315231  20.502891 25.602937  1 
17.946371  19.573437 25.610586  1 
16.958493  19.427107 25.558870  1 
16.589633  18.497653 25.566519  1 
15.601746  18.351326 25.514802  1 
15.232886  17.421873 25.522451  1 
14.245008  17.275543 25.470735  1 
13.876148  16.346089 25.478384  1 
12.888261  16.199762 25.426667  1 
12.519401  15.270309 25.434316  1 
11.531523  15.123978 25.382600  1 
11.162663  14.194525 25.390249  1 
10.174776  14.048198 25.338533  1 
9.805916  13.118744 25.346182  1 
8.818038  12.972414 25.294466  4 
14.982727  19.134450 25.455437  4 
13.994840  18.988123 25.403720  1 
13.625980  18.058670 25.411369  1 
12.638102  17.912339 25.359653  1 
12.269242  16.982886 25.367302  1 
11.281355  16.836559 25.315586  1 
10.912495  15.907105 25.323235  1 
9.924617  15.760775 25.271519  1 
9.555757  14.831321 25.279168  1 
8.567870  14.684995 25.227451  1 
8.199010  13.755541 25.235100  1 
7.211132  13.609211 25.183384  1 
6.842272  12.679757 25.191033  1 
5.854385  12.533431 25.139316  1 
5.485525  11.603977 25.146965  1 
4.497637  11.457650 25.095248  1 
4.128778  10.528197 25.102897  1 
3.140900  10.381866 25.051181  1 
2.772040  9.452413 25.058830  1 
1.784152  9.306086 25.007114  1 
1.415293  8.376632 25.014763  1 
0.427415  8.230302 24.963047  1 
13.375821  19.771247 25.344355  1 
12.387933  19.624920 25.292639  4 
13.744680  20.700700 25.336706  1 
13.125652  21.483827 25.277341  1 
12.137774  21.337497 25.225625  1 
11.768914  20.408043 25.233274  1 
10.781027  20.261717 25.181557  1 
10.412167  19.332263 25.189206  1 
9.424289  19.185933 25.137490  1 
9.055429  18.256479 25.145139  1 
8.067542  18.110153 25.093422  1 
7.698682  17.180699 25.101071  4 
9.626317  8.455079 17.826072  1 
10.229863  7.116990 18.220388  1 
11.749779  7.117271 18.053983  1 
12.399952  5.780915 18.423044  1 
12.323158  5.400542 19.887764  1 
11.248168  4.575571 20.264562  1 
10.968941  4.161744 21.580787  1 
11.851406  4.579075 22.602995  1 
12.949519  5.403153 22.219944  1 
13.205400  5.821936 20.888429  1 
14.374668  6.750755 20.632832  1 
15.513887  6.187547 19.788928  1 
11.621671  4.177877 23.934185  1 
12.465878  4.565977 24.911081  3 
12.212871  4.140481 26.165688  1 
12.942830  4.397484 27.350760  1 
12.302223  3.746101 28.382298  1 
11.208521  3.106455 27.856474  3 
10.554677  2.545823 28.385405  2 
11.132687  3.335479 26.502694  1 
10.225697  2.921112 25.513617  1 
9.112054  2.111751 25.805622  1 
8.249007  1.734277 24.777609  1 
8.484999  2.154673 23.463224  1 
7.619503  1.792098 22.424322  1 
7.881256  2.258547 21.148173  1 
6.982783  1.890844 19.981822  1 
6.865305  2.941051 18.846020  1 
8.177041  3.199885 18.105871  1 
5.836958  2.494739 17.803560  1 
8.981137  2.994174 20.886325  3 
9.841874  3.365505 21.864231  1 
9.611757  2.965097 23.175025  1 
10.498414  3.363440 24.204259  1 
8.533785  8.392285 17.835194  2 
9.943125  8.755550 16.822539  2 
9.926868  9.236864 18.531053  2 
9.792565  6.326250 17.599592  2 
9.956017  6.907654 19.259255  2 
12.193039  7.933867 18.634087  2 
11.981555  7.319412 16.999332  2 
13.432756  5.798987 18.084163  2 
11.948474  4.982188 17.818009  2 
10.583709  4.248145 19.472696  2 
13.625470  5.741985 23.008985  2 
14.812018  7.051623 21.593863  2 
13.996156  7.676678 20.185612  2 
15.982982  5.327780 20.275109  2 
16.276795  6.959368 19.640321  2 
15.209780  5.864616 18.794199  2 
13.840331  4.993980 27.430320  2 
12.528720  3.681883 29.438071  2 
8.904289  1.774841 26.816227  2 
7.388079  1.112747 25.014739  2 
6.754587  1.164251 22.612918  2 
5.971536  1.719843 20.377364  2 
7.326968  0.931991 19.574822  2 
6.522895  3.889662 19.279966  2 
8.656641  2.269086 17.788325  2 
8.865548  3.749599 18.732991  2 
8.029329  3.839049 17.230349  2 
6.113382  1.528611 17.367112  2 
5.778282  3.223540 16.986291  2 
4.839419  2.406112 18.241691  2 
24.551459  8.990833 26.606906  1 
25.878187  8.555762 26.865002  1 
26.930057  9.507808 26.779708  1 
26.698721  10.836651 26.419787  1 
25.398955  11.199430 26.063959  1 
24.283963  10.316307 26.160214  1 
23.466785  8.090092 26.786769  1 
23.772267  6.746501 27.103631  1 
25.027651  6.323296 27.294932  3 
26.065812  7.196581 27.212008  1 
22.939706  10.711069 25.838880  1 
21.858715  9.823645 26.099311  1 
22.130539  8.513940 26.616115  1 
21.108666  7.577809 26.929368  1 
21.382254  6.236514 27.201318  1 
22.721342  5.821165 27.169417  1 
20.225594  5.248948 27.355898  1 
20.625083  3.783637 27.060741  1 
21.916372  3.642897 26.241380  1 
23.026948  4.341509 27.052516  1 
22.621269  11.964136 25.234844  1 
21.325468  12.351906 24.859286  1 
20.288259  11.484790 25.157856  1 
20.546983  10.261195 25.772980  1 
27.415419  6.574004 27.546950  1 
27.859986  5.448171 26.582641  1 
28.019763  5.967663 25.153607  1 
29.188842  4.816341 27.022997  1 
27.820407  11.866604 26.449720  1 
27.916424  12.632006 27.791661  1 
29.045649  13.695865 27.855675  1 
28.872030  14.814993 26.826595  1 
29.159075  14.319358 29.257075  1 
21.761079  4.174381 24.792287  1 
23.025246  4.023553 23.934555  1 
22.854329  4.588718 22.520433  1 
21.756170  3.897254 21.728630  1 
19.583559  5.369918 28.759000  1 
18.311540  4.543314 28.927542  1 
19.014410  11.821311 24.803928  4 
21.107029  13.651778 24.118931  1 
20.899790  14.850167 25.046645  1 
20.691939  16.143511 24.267441  1 
27.953465  9.221606 26.996178  2 
25.253862  12.222019 25.725605  2 
20.064272  7.862333 26.891157  2 
19.471201  5.525436 26.605397  2 
19.791460  3.265258 26.569435  2 
20.782498  3.250312 28.009100  2 
22.154032  2.573025 26.175501  2 
23.982419  4.170607 26.547207  2 
23.110851  3.905228 28.053884  2 
23.418647  12.664604 24.986449  2 
19.695312  9.615063 25.961319  2 
27.332603  6.161860 28.562529  2 
28.208488  7.321853 27.609491  2 
27.102078  4.654281 26.582140  2 
28.781776  6.753240 25.106274  2 
27.080716  6.375770 24.770165  2 
28.326536  5.159120 24.481503  2 
30.003478  5.549374 27.019738  2 
29.473518  4.007872 26.338145  2 
29.119370  4.386335 28.027080  2 
27.670995  12.563834 25.616825  2 
28.773248  11.360487 26.254151  2 
28.090997  11.900759 28.592199  2 
26.953313  13.108260 28.017125  2 
30.000796  13.197635 27.649301  2 
27.892456  15.296101 26.915175  2 
28.981537  14.432705 25.808195  2 
29.637219  15.589349 26.960647  2 
28.219074  14.780327 29.579432  2 
29.931069  15.099545 29.275783  2 
29.444760  13.567872 30.000308  2 
21.470968  5.230523 24.779666  2 
20.931603  3.634306 24.322665  2 
23.311583  2.967099 23.877837  2 
23.863095  4.557190 24.397462  2 
23.802795  4.480789 21.980131  2 
22.643346  5.663635 22.573588  2 
21.919627  2.815592 21.697139  2 
21.734747  4.272245 20.701224  2 
20.770775  4.086135 22.164504  2 
19.339678  6.416786 28.978469  2 
20.308860  5.058991 29.522235  2 
17.510321  4.923106 28.286046  2 
17.964324  4.594732 29.965319  2 
18.470700  3.487556 28.689756  2 
18.427746  11.066411 24.979058  2 
20.255579  13.550436 23.434513  2 
21.974794  13.833724 23.470943  2 
21.770603  14.969722 25.701800  2 
20.032211  14.681414 25.695109  2 
21.532545  16.342739 23.594631  2 
20.605831  16.990073 24.956788  2 
19.775790  16.103441 23.669124  2 
 %endblock AtomicCoordinatesAndAtomicSpecies

