NumberOfAtoms 7199
SpinPolarized yes
#FixSpin .true.
#TotalSpin
NumberOfSpecies 4


MD.TypeOfRun  nose
MD.FinalTimeStep 100
MD.LengthTimeStep 1.0  fs
MD.InitialTemperature 300 K
MD.TargetTemperature  300  K


%block ChemicalSpeciesLabel
1 6 C
2 8 O
3 7 N
4 1 H
%endblock ChemicalSpeciesLabel
PAO.BasisSize dzp 
 PAO.EnergyShift 0.02 Ry 
MeshCutoff          100 Ry
MaxSCFIterations    100
DM.NumberPulay       3
DM.Tolerance         1e-3
WriteDenchar	.true.
%block ProjectedDensityOfStates
-10.0 10.0 0.200 500 eV
%endblock ProjectedDensityOfStates
NetCharge 0.00

%block BandLines
1  1.000  1.000 1.000  L
20 0.00   0.00   0.00  \Gamma
25 2.00   0.000  0.00  X
30 2.00   2.00   2.00  \Gamma
%endblock BandLines


LongOutput .true.
WriteCoorXmol .true.
LatticeConstant 1 Ang
%block LatticeVectors
  30 0.0 0.0
  0.0 30 0.0
0.0 0.0 30
%endblock LatticeVectors




#UseSaveData .true.
%block kgrid_Monkhorst_Pack
1 0 0 0.0 
 0 1 0 0.0 
 0 0 1 0.0

%endblock kgrid_Monkhorst_Pack
WriteMDXmol .true.
AtomicCoordinatesFormat Ang
%block AtomicCoordinatesAndAtomicSpecies
17.055811  30.972814 25.167151  1
16.435332  29.803103 25.847426  1
17.062039  28.705605 26.301996  1
18.547696  28.459105 26.151956  1
16.309285  27.586678 26.962735  1
15.293145  27.931812 28.061419  1
14.753561  26.695510 28.807401  1
15.710927  25.962506 29.794080  1
14.992083  24.728980 30.348295  1
17.079581  25.576533 29.201469  1
17.995543  24.709726 30.086398  1
19.296820  24.434904 29.318108  1
20.351202  23.604880 30.075197  1
19.839362  22.195388 30.386723  1
21.740549  23.564324 29.377237  1
21.845614  22.904263 27.985395  1
21.144125  23.664040 26.858455  1
21.085108  22.958996 25.495597  1
20.455038  21.566734 25.594731  1
20.251864  23.823169 24.538098  1
16.551478  31.890690 25.480861  4
16.945973  30.865146 24.084826  4
18.112608  31.083363 25.409114  4
15.350171  29.869851 25.969373  4
18.974478  28.976409 25.288915  4
18.761024  27.395236 26.004902  4
19.077217  28.789327 27.054657  4
17.089361  26.977396 27.386400  4
15.843016  26.946773 26.203395  4
14.433478  28.431932 27.594288  4
15.711252  28.642932 28.782855  4
14.342117  25.988899 28.076106  4
13.889820  27.036996 29.399620  4
15.893131  26.645603 30.633582  4
14.860158  23.966459 29.576328  4
14.002520  24.994363 30.741575  4
15.555892  24.288189 31.175630  4
17.652756  26.501038 29.076149  4
16.943201  25.079848 28.241285  4
17.501752  23.754912 30.301735  4
18.202549  25.214880 31.035414  4
19.737302  25.374134 28.977113  4
18.953878  23.862514 28.457986  4
20.519330  24.114401 31.036997  4
20.526469  21.414795 30.047372  4
18.867508  21.993003 29.927299  4
19.723746  22.073084 31.469342  4
22.415983  23.009437 30.043673  4
22.153708  24.579884 29.327080  4
21.487569  21.873405 28.049750  4
22.911800  22.838789 27.727881  4
21.590330  24.659611 26.758891  4
20.105938  23.832655 27.102576  4
22.099852  22.869447 25.089980  4
21.207730  20.820763 25.869685  4
20.016613  21.255121 24.639517  4
19.658224  21.533268 26.347381  4
19.196621  23.857679 24.854268  4
20.282596  23.415968 23.526640  4
20.622882  24.850537 24.504467  4
31.630756  16.657801 3.227590  1
31.199349  15.968043 4.474230  1
30.566135  14.787279 4.567694  1
30.140189  13.961268 3.373238  1
30.174753  14.207496 5.896559  1
31.220607  14.172768 7.020724  1
30.770329  13.361774 8.251829  1
30.719396  11.809760 8.125171  1
30.169507  11.229695 9.431548  1
29.921731  11.284792 6.916240  1
29.707424  9.761112 6.839352  1
28.893962  9.446931 5.574960  1
28.616012  7.953179 5.319440  1
27.759035  7.342476 6.432242  1
28.020331  7.654968 3.913981  1
26.633874  8.237334 3.563937  1
26.594529  9.758899 3.413492  1
25.206530  10.389332 3.229200  1
24.242642  9.997352 4.352802  1
25.365989  11.916462 3.210716  1
32.588234  17.157760 3.396525  4
30.886894  17.409743 2.951299  4
31.766547  15.967777 2.395115  4
31.429823  16.508552 5.397071  4
29.968317  14.569410 2.481492  4
29.199756  13.435614 3.568749  4
30.906437  13.210420 3.142157  4
29.888337  13.198418 5.653739  4
29.249951  14.676792 6.254312  4
31.402576  15.202795 7.357311  4
32.182000  13.789958 6.659953  4
29.805712  13.749883 8.601489  4
31.485193  13.590093 9.058193  4
31.754451  11.461147 8.016946  4
29.109614  11.466371 9.555595  4
30.713775  11.626871 10.297778  4
30.284939  10.142117 9.454181  4
30.510252  11.501471 6.018667  4
28.952860  11.780719 6.865305  4
29.143507  9.424721 7.717252  4
30.669280  9.238372 6.823832  4
29.372960  9.891280 4.699992  4
27.947658  9.950541 5.764532  4
29.592876  7.444969 5.339382  4
26.875331  6.826220 6.046045  4
27.408925  8.091502 7.148422  4
28.345236  6.603086 6.989071  4
27.936599  6.562291 3.828568  4
28.741547  7.951013 3.141464  4
25.904302  7.894116 4.302132  4
26.322226  7.800936 2.604882  4
27.266431  10.061266 2.602755  4
26.975608  10.238686 4.302560  4
24.789266  10.071222 2.266418  4
23.760189  9.039835 4.131403  4
23.449732  10.743486 4.480591  4
24.758311  9.899080 5.315581  4
25.688798  12.291735 4.195427  4
24.419249  12.399327 2.965096  4
26.110640  12.229817 2.474799  4
18.539086  11.226694 18.942651  1
18.762628  12.654903 19.297949  1
18.643364  13.718529 18.486547  1
18.288863  13.624269 17.018250  1
18.911920  15.113515 18.973478  1
18.276184  15.566052 20.296284  1
18.445014  17.072961 20.573423  1
17.605096  18.070804 19.721233  1
17.997149  19.498822 20.111793  1
17.714286  17.872031 18.197441  1
17.032329  18.932498 17.312126  1
17.259131  18.556983 15.840166  1
16.608677  19.497906 14.807975  1
17.192774  20.911381 14.889310  1
16.639266  18.952572 13.351694  1
18.010460  18.738280 12.675047  1
18.850049  17.605266 13.267254  1
20.282830  17.468035 12.732223  1
21.076162  18.770563 12.870980  1
20.991585  16.358631 13.522655  1
18.074415  10.706738 19.784666  4
19.498875  10.751259 18.723906  4
17.878956  11.109325 18.083557  4
19.062482  12.824513 20.336324  4
18.580928  12.668427 16.575924  4
18.800013  14.397776 16.435701  4
17.207944  13.756660 16.882625  4
18.537997  15.732400 18.175733  4
19.991839  15.306057 18.987146  4
18.765308  15.026226 21.118904  4
17.213702  15.301082 20.339870  4
19.510755  17.327912 20.522700  4
18.157129  17.234223 21.624376  4
16.553438  17.927192 20.000468  4
19.010451  19.737278 19.778424  4
17.952569  19.635015 21.199816  4
17.309052  20.226243 19.671293  4
17.174216  16.952409 17.949321  4
18.761070  17.789252 17.906513  4
17.482505  19.913950 17.501769  4
15.962873  18.991859 17.538851  4
16.937752  17.528860 15.660905  4
18.341009  18.621194 15.737849  4
15.542327  19.566220 15.074752  4
17.544404  21.276640 13.920009  4
18.035069  20.975810 15.584233  4
16.424757  21.611184 15.236891  4
16.087433  19.671988 12.730268  4
16.061111  18.021190 13.298399  4
18.562370  19.681888 12.677011  4
17.826259  18.497625 11.618871  4
18.307471  16.659105 13.164477  4
18.987690  17.748926 14.328515  4
20.248505  17.175438 11.676070  4
20.893638  19.427198 12.014164  4
22.154959  18.581123 12.916365  4
20.801415  19.319607 13.779594  4
21.138312  16.654889 14.574032  4
21.973506  16.149409 13.096201  4
20.411483  15.432507 13.515803  4
8.728831  22.489038 16.038993  1
8.150882  21.150604 15.738060  1
8.592797  19.961145 16.178283  1
9.817889  19.785837 17.049413  1
7.919510  18.677443 15.785851  1
6.390559  18.584688 15.897528  1
5.845428  17.159579 15.678487  1
6.084059  16.105870 16.801044  1
5.534027  14.756194 16.330601  1
7.548437  15.968828 17.259513  1
7.858360  14.829749 18.249404  1
9.359105  14.862135 18.574724  1
9.841217  13.805042 19.586636  1
9.642558  12.383552 19.052223  1
11.298085  14.027572 20.083723  1
12.447217  13.941695 19.056072  1
12.475509  15.072519 18.026617  1
13.500223  14.934455 16.891341  1
13.349910  13.609418 16.138419  1
13.297172  16.098293 15.910450  1
7.924253  23.221755 16.144076  4
9.379035  22.798316 15.216395  4
9.299647  22.497391 16.967263  4
7.277737  21.169076 15.079137  4
10.546467  20.589667 16.916680  4
10.344555  18.855733 16.811759  4
9.526031  19.749414 18.106674  4
8.363271  17.951340 16.445460  4
8.244991  18.372819 14.783479  4
5.946571  19.226325 15.123877  4
6.036479  18.969688 16.860533  4
6.209478  16.782460 14.714834  4
4.754359  17.254313 15.560264  4
5.492046  16.420928 17.669860  4
6.139124  14.341963 15.520017  4
4.501619  14.855895 15.972100  4
5.517539  14.034216 17.152269  4
7.797551  16.870772 17.828180  4
8.202519  15.871836 16.393478  4
7.615738  13.865549 17.787533  4
7.259838  14.938623 19.159668  4
9.648994  15.859486 18.911931  4
9.820405  14.657774 17.610105  4
9.205448  13.913230 20.479403  4
10.558582  11.787179 19.095129  4
9.297372  12.372066 18.014319  4
8.891057  11.861782 19.655042  4
11.495545  13.260424 20.845788  4
11.360151  14.985847 20.615169  4
12.419417  12.963756 18.568355  4
13.394200  13.975642 19.612330  4
12.598448  16.030859 18.542993  4
11.530208  15.139064 17.509089  4
14.512565  15.002165 17.307067  4
13.906153  12.812970 16.643278  4
13.736086  13.682674 15.115065  4
12.301149  13.296213 16.071209  4
12.328166  16.013498 15.392252  4
14.080609  16.103103 15.151497  4
13.315284  17.061367 16.426619  4
16.787103  21.526714 24.536432  1
15.672307  22.226628 23.841205  1
15.711067  22.805594 22.629927  1
16.952430  22.874695 21.766972  1
14.509498  23.492953 22.047707  1
13.157112  22.765928 22.083070  1
12.058949  23.474334 21.265586  1
12.153868  23.417157 19.711526  1
11.014077  24.251938 19.120344  1
13.510966  23.856121 19.129315  1
13.599749  23.970761 17.595556  1
15.019975  24.421010 17.222258  1
15.298391  24.553271 15.712677  1
14.422597  25.634186 15.072127  1
16.800469  24.758108 15.364997  1
17.504410  26.036707 15.868580  1
17.699520  26.109379 17.383833  1
18.244784  27.433800 17.937501  1
17.391248  28.631209 17.509835  1
18.262190  27.348130 19.470554  1
16.394898  20.668428 25.088504  4
17.261822  22.211300 25.244293  4
17.540012  21.151402 23.843714  4
14.735589  22.263841 24.405187  4
17.874212  22.843715 22.353442  4
16.987159  23.807699 21.194917  4
16.962830  22.039872 21.054742  4
14.790402  23.659807 21.021798  4
14.409288  24.499608 22.472075  4
12.812443  22.724764 23.125599  4
13.253254  21.727295 21.746955  4
11.974507  24.513518 21.606676  4
11.104405  22.999088 21.541937  4
11.988026  22.373034 19.416760  4
11.167972  25.318714 19.302233  4
10.049120  23.964771 19.557062  4
10.934683  24.094112 18.040785  4
14.236121  23.070294 19.365046  4
13.817874  24.802991 19.572592  4
12.884287  24.722101 17.241334  4
13.358191  23.012535 17.124265  4
15.756864  23.757623 17.679823  4
15.088759  25.407433 17.677550  4
15.019121  23.590232 15.257153  4
15.005884  26.365323 14.504838  4
13.837843  26.189890 15.810900  4
13.716683  25.173661 14.372132  4
16.875752  24.765058 14.268396  4
17.373220  23.879590 15.688632  4
16.965737  26.912337 15.496949  4
18.499372  26.073718 15.403787  4
18.321859  25.269115 17.710673  4
16.755845  25.989618 17.894706  4
19.273110  27.577565 17.585185  4
17.702290  28.995360 16.525322  4
17.487367  29.465371 18.214594  4
16.327216  28.372447 17.451591  4
17.237999  27.303918 19.875239  4
18.751472  28.223625 19.899409  4
18.794072  26.457080 19.813193  4
34.684100  23.306008 16.261522  1
34.678999  24.794619 16.260932  1
34.029430  25.601627 17.115740  1
33.134814  25.104883 18.230800  1
34.100140  27.096752 16.994041  1
35.475515  27.755825 16.813122  1
35.437476  29.293001 16.921401  1
35.219013  29.920637 18.330559  1
35.134358  31.442454 18.180947  1
33.998254  29.378752 19.098338  1
33.648370  30.081803 20.423759  1
32.409886  29.400253 21.024395  1
31.938655  29.957880 22.381169  1
31.496271  31.419566 22.265122  1
30.852651  29.088240 23.076439  1
29.485384  28.922092 22.378644  1
29.517248  28.102075 21.087947  1
28.212425  28.053080 20.279870  1
27.692324  29.453092 19.941240  1
28.477131  27.284174 18.977330  1
35.674817  22.941624 15.976975  4
33.953992  22.938996 15.535348  4
34.453168  22.888821 17.241426  4
35.270713  25.251924 15.462403  4
32.701525  24.124541 18.016840  4
32.289768  25.781890 18.393615  4
33.702151  25.039526 19.167905  4
33.664779  27.442843 17.915950  4
33.408674  27.444236 16.216473  4
35.849508  27.508579 15.809949  4
36.206855  27.355246 17.524215  4
34.699547  29.682731 16.209397  4
36.411671  29.658523 16.559847  4
36.112935  29.694872 18.925971  4
34.214057  31.740478 17.672022  4
35.985425  31.828802 17.605839  4
35.161935  31.932373 19.158638  4
34.237416  28.357066 19.411232  4
33.120081  29.383824 18.453330  4
33.415271  31.135422 20.230310  4
34.493809  30.035442 21.117839  4
32.573900  28.323393 21.101390  4
31.640345  29.596970 20.279976  4
32.812042  29.930222 23.051520  4
30.494110  31.588184 22.669898  4
31.490837  31.773301 21.230050  4
32.182518  32.061177 22.828849  4
30.655746  29.546989 24.055739  4
31.266719  28.096616 23.299611  4
29.047324  29.909192 22.209110  4
28.813582  28.409431 23.080935  4
29.872195  27.089601 21.309494  4
30.231701  28.516048 20.392216  4
27.450741  27.512738 20.854429  4
27.086822  29.849422 20.762768  4
27.062458  29.441659 19.044083  4
28.511774  30.158200 19.757287  4
29.163649  27.843478 18.321157  4
27.547987  27.125709 18.428345  4
28.927608  26.308503 19.175839  4
27.112573  0.074985 29.183454  1
26.877963  0.036547 30.154788  1
27.277295  0.695627 30.792077  1
27.911239  1.393149 30.458042  1
28.310572  2.052233 31.095341  1
28.944515  2.749755 30.761306  1
29.343847  3.408835 31.398595  1
29.977790  4.106357 31.064561  1
30.377123  4.765441 31.701859  1
31.011067  5.462963 31.367825  1
31.410399  6.122043 32.005114  1
32.044342  6.819565 31.671079  1
32.443675  7.478649 32.308378  1
33.077618  8.176171 31.974343  1
33.476951  8.835251 32.611632  1
34.110894  9.532773 32.277597  1
34.510227  10.191856 32.914896  1
35.144170  10.889378 32.580861  1
35.543502  11.548459 33.218151  1
36.177446  12.245980 32.884116  1
36.576779  12.905064 33.521415  1
37.210722  13.602586 33.187380  1
40.045407  3.785505 31.629978  1
39.694514  4.718989 31.555895  1
38.801223  4.949456 31.941780  1
38.258817  4.246445 32.401749  1
37.365519  4.476919 32.787635  1
36.823114  3.773908 33.247604  1
35.929823  4.004375 33.633489  1
35.387417  3.301364 34.093458  1
34.494119  3.531838 34.479344  1
33.951714  2.828827 34.939314  1
33.058423  3.059294 35.325198  1
32.516017  2.356283 35.785167  1
31.622719  2.586757 36.171054  1
31.080313  1.883746 36.631023  1
30.187022  2.114213 37.016907  1
29.644617  1.411202 37.476877  1
28.751319  1.641676 37.862763  1
28.208913  0.938665 38.322732  1
27.315622  1.169132 38.708617  1
26.773217  0.466121 39.168586  1
25.879919  0.696595 39.554472  1
25.337513  -0.006416 40.014441  1
22.331084  14.991122 10.456767  1
23.276978  15.027822 10.779161  1
23.919164  15.677275 10.371975  1
23.615457  16.290034 9.642389  1
24.257644  16.939494 9.235197  1
23.953936  17.552247 8.505618  1
24.596123  18.201706 8.098425  1
24.292414  18.814459 7.368846  1
24.934601  19.463918 6.961654  1
24.630893  20.076671 6.232074  1
25.273080  20.726131 5.824882  1
24.969371  21.338883 5.095302  1
25.611559  21.988343 4.688110  1
25.307850  22.601095 3.958531  1
25.950037  23.250555 3.551338  1
25.646328  23.863307 2.821759  1
26.288516  24.512767 2.414567  1
9.886714  1.489893 14.764021  1
10.148172  0.571494 14.467068  1
10.784074  0.454772 13.704181  1
11.158523  1.256455 13.238241  1
11.794431  1.139738 12.475348  1
12.168875  1.941417 12.009415  1
12.804783  1.824700 11.246521  1
13.179227  2.626379 10.780589  1
13.815134  2.509661 10.017695  1
14.189578  3.311340 9.551762  1
14.825486  3.194623 8.788869  1
15.199930  3.996302 8.322936  1
15.835838  3.879585 7.560042  1
16.210282  4.681263 7.094109  1
16.846189  4.564546 6.331216  1
17.220633  5.366225 5.865283  1
17.856541  5.249508 5.102390  1
10.992312  21.016590 9.188334  1
10.836086  20.695118 10.122277  1
10.839675  21.345301 10.882041  1
10.999490  22.316964 10.707865  1
11.003080  22.967156 11.467631  1
11.162894  23.938810 11.293452  1
11.166483  24.589002 12.053219  1
11.326298  25.560656 11.879039  1
11.329887  26.210848 12.638806  1
11.489701  27.182502 12.464626  1
11.493291  27.832693 13.224393  1
11.653105  28.804347 13.050213  1
11.656695  29.454539 13.809980  1
11.816509  30.426193 13.635800  1
11.820099  31.076385 14.395567  1
11.979913  32.048039 14.221388  1
11.983503  32.698231 14.981155  1
15.276897  30.517887 15.380226  1
14.279030  30.507004 15.315864  1
13.836024  30.483372 14.419662  1
14.390886  30.470622 13.587812  1
13.947881  30.446990 12.691600  1
14.502742  30.434241 11.859761  1
14.059737  30.410608 10.963549  1
14.614598  30.397859 10.131709  1
14.171592  30.374227 9.235497  1
14.726454  30.361478 8.403658  1
14.283448  30.337845 7.507446  1
14.838310  30.325096 6.675606  1
14.395304  30.301464 5.779395  1
14.950166  30.288714 4.947555  1
14.507160  30.265082 4.051343  1
15.062021  30.252333 3.219504  1
14.619016  30.228700 2.323292  1
27.630432  1.902762 38.909856  1
26.749365  3.076560 38.582376  1
27.329147  4.229924 38.047652  1
26.512057  5.300074 37.740421  1
25.176378  5.302208 37.919558  3
24.606892  4.196378 38.427717  1
23.228175  4.185401 38.593254  1
22.553964  3.073979 39.103704  1
23.271740  1.946635 39.474857  1
24.657882  1.932833 39.324133  1
25.347307  3.046929 38.789129  1
28.674021  2.094553 38.637821  4
27.307449  1.017636 38.352327  4
27.601836  1.692250 39.983738  4
28.396566  4.298229 37.866680  4
26.922484  6.214721 37.322214  4
22.660809  5.068263 38.308096  4
21.472420  3.096214 39.207332  4
22.757444  1.077419 39.876297  4
25.196944  1.038118 39.624065  4
14.900439  4.390050 38.558924  1
13.413049  4.476146 38.355006  1
12.831060  5.727341 38.135627  1
11.465806  5.797060 37.939490  1
10.650152  4.724288 37.940337  3
11.199397  3.515137 38.144504  1
10.366328  2.404301 38.123975  1
10.855253  1.110242 38.315658  1
12.208432  0.915520 38.549859  1
13.066564  2.014129 38.580919  1
12.583154  3.327016 38.367867  1
15.376737  5.372226 38.467618  4
15.350969  3.739627 37.802235  4
15.126754  4.004257 39.558074  4
13.425378  6.634546 38.111851  4
10.974140  6.749775 37.764779  4
9.303761  2.551504 37.945232  4
10.175694  0.262949 38.280074  4
12.599017  -0.086972 38.703626  4
14.121958  1.834701 38.768031  4
18.032017  27.520626 19.925200  1
19.136097  27.711569 20.915541  1
18.820100  27.686653 22.238409  3
19.789921  27.855296 23.163370  1
21.129329  28.059348 22.876303  1
21.481783  28.089223 21.519839  1
22.715058  28.269130 20.814971  1
24.050904  28.485230 21.212367  1
25.045729  28.622541 20.237120  1
24.727651  28.547626 18.883173  1
23.411745  28.333800 18.463422  1
22.430317  28.199163 19.452456  1
21.077984  27.985667 19.334380  3
20.591441  27.893230 18.455063  4
20.476772  27.914597 20.570012  1
17.071588  27.380017 20.430552  4
18.228701  26.638406 19.308371  4
17.953860  28.397797 19.275604  4
19.446916  27.820658 24.193985  4
21.860668  28.188197 23.664013  4
24.309184  28.545177 22.265353  4
26.076148  28.789238 20.541408  4
25.514536  28.656765 18.140154  4
23.168083  28.276479 17.407624  4
22.883431  27.096804 7.082815  1
22.246916  27.532143 8.364047  1
21.978076  28.855596 8.527307  3
21.403423  29.287613 9.670847  1
21.049143  28.473900 10.734056  1
21.315480  27.105048 10.591165  1
21.113118  25.958685 11.424877  1
20.567757  25.763468 12.710793  1
20.518465  24.472130 13.248988  1
21.001785  23.383352 12.527239  1
21.546587  23.550118 11.250955  1
21.587932  24.848361 10.729064  1
22.060227  25.302210 9.521055  3
22.465000  24.711097 8.810272  4
21.908521  26.665192 9.408989  1
23.053511  27.950294 6.419338  4
22.236119  26.382249 6.565250  4
23.847731  26.620590 7.284951  4
21.225334  30.358788 9.714289  4
20.590477  28.880996 11.626158  4
20.188315  26.605708 13.281527  4
20.098468  24.319526 14.240177  4
20.954831  22.387516 12.962305  4
21.922404  22.699320 10.692142  4
33.624425  33.924749 2.916055  1
32.957891  32.585824 3.011671  1
33.706393  31.421127 3.076848  1
33.059584  30.203272 3.310025  1
33.812561  29.023614 3.443363  1
33.197431  27.807770 3.781590  1
33.914446  26.627158 3.995626  1
33.359557  25.448934 4.366316  3
32.021902  25.437576 4.520091  1
31.210661  26.539809 4.307419  1
31.804187  27.754263 3.936821  1
31.046723  28.925944 3.746883  1
31.655815  30.173002 3.449465  1
30.972035  31.402714 3.305383  1
29.485154  31.545815 3.449697  1
31.612666  32.585370 3.105728  3
34.703949  33.832873 2.761321  4
33.460599  34.476893 3.847654  4
33.205389  34.499131 2.085020  4
34.787838  31.467100 2.991610  4
34.891981  29.056791 3.324214  4
34.995456  26.598708 3.889681  4
31.599323  24.487379 4.835500  4
30.138084  26.454631 4.450313  4
29.970188  28.861110 3.865852  4
28.939135  30.607352 3.339322  4
29.103879  32.222891 2.676952  4
29.252023  31.974245 4.430052  4
25.070540  27.839973 16.858313  1
25.366353  29.305789 16.959533  1
24.353650  30.252586 16.906579  1
24.652900  31.631758 17.003913  1
23.675102  32.670667 16.960051  1
22.328450  32.381263 16.814559  2
23.990164  34.040308 17.059140  1
23.018290  34.982378 17.012151  3
23.357154  36.281406 17.110406  1
24.653713  36.722354 17.258151  1
25.673438  35.772402 17.309096  1
27.093835  36.246534 17.470600  1
25.342610  34.394983 17.208043  1
26.315747  33.372591 17.251666  1
26.006827  31.996355 17.154356  1
26.974575  30.962872 17.199358  1
28.452156  31.194392 17.356779  1
26.658797  29.646672 17.103319  3
23.999217  27.646733 16.748030  4
25.418474  27.328372 17.761092  4
25.585153  27.416961 15.989969  4
23.337695  29.894739 16.789283  4
22.175446  31.432669 16.750241  4
22.526665  36.979671 17.065246  4
24.857927  37.784763 17.331482  4
27.151554  37.338256 17.531039  4
27.698755  35.933920 16.613128  4
27.526252  35.844552 18.392747  4
27.351538  33.672030 17.366467  4
28.744910  32.240107 17.447420  4
28.978751  30.782352 16.489603  4
28.806388  30.679401 18.255950  4
18.058965  30.909362 21.599412  1
19.144752  29.880087 21.957720  1
20.502784  30.410560 21.486711  1
19.136496  29.603516 23.474958  1
17.899904  29.080781 24.069690  3
17.187897  27.934009 23.921315  1
16.355569  27.676030 24.796646  2
17.473608  26.936837 22.781329  1
16.148967  26.396132 22.175621  1
15.339837  27.535657 21.541326  1
16.376672  25.310288 21.112572  1
18.259791  25.866505 23.392986  3
19.612890  25.813905 23.576232  1
20.055372  25.033328 24.415090  2
20.537442  26.782744 22.800961  1
21.792474  26.015520 22.296633  1
21.415924  24.909739 21.304665  1
22.814999  26.946650 21.632510  1
20.935402  27.802020 23.771753  3
20.354174  28.957864 24.169970  1
20.791406  29.460684 25.212585  2
18.045859  31.103269 20.521476  4
18.234502  31.865230 22.106545  4
17.063441  30.553201 21.882877  4
18.934564  28.987406 21.373030  4
20.800884  31.302167 22.047904  4
20.468165  30.675624 20.424246  4
21.284108  29.655237 21.605722  4
19.168166  30.620302 23.903357  4
17.643821  29.532089 24.943555  4
18.042000  27.399658 21.988473  4
15.536510  25.950710 22.970300  4
15.873408  27.977681 20.692655  4
15.131266  28.330482 22.263273  4
14.374693  27.166649 21.177198  4
17.094791  25.631059 20.350211  4
15.437401  25.067645 20.599982  4
16.744297  24.382735 21.562584  4
17.772900  25.291871 24.075978  4
20.035354  27.245016 21.956804  4
22.294368  25.539724 23.150407  4
20.943375  25.325299 20.408679  4
20.728060  24.184943 21.750046  4
22.308465  24.356867 20.990447  4
22.366579  27.505377 20.804675  4
23.657312  26.371609 21.230539  4
23.227378  27.663960 22.349150  4
21.595382  27.484482 24.476463  4
29.581874  19.062738 33.015616  1
28.657449  17.978888 32.434725  1
27.430148  18.656161 31.816231  1
29.420123  17.127255 31.399534  1
30.618090  16.408758 31.852032  3
30.844028  15.410836 32.744870  1
31.929361  14.826479 32.666726  2
29.762732  14.943941 33.739033  1
30.378146  14.681298 35.141247  1
30.955658  15.976011 35.729241  1
29.364536  14.102423 36.140484  1
29.207729  13.721674 33.159503  3
28.201673  13.605360 32.242146  1
28.115120  12.558924 31.604766  2
27.262646  14.804043 31.966687  1
25.796266  14.301244 31.844185  1
25.304479  13.674186 33.153186  1
24.829402  15.421806 31.440287  1
27.705405  15.359988 30.688163  3
28.661275  16.263878 30.369302  1
28.990088  16.316929 29.177617  2
29.054742  19.665354 33.763082  4
29.938565  19.742264 32.232867  4
30.455790  18.620659 33.504604  4
28.301599  17.387874 33.275554  4
27.702030  19.255711 30.941368  4
26.945444  19.318028 32.542373  4
26.686395  17.917411 31.506033  4
29.864698  17.893332 30.740853  4
31.403503  16.478753 31.210842  4
28.983218  15.683303 33.846710  4
31.198315  13.957076 35.052692  4
30.169195  16.718125 35.905508  4
31.701045  16.421737 35.064272  4
31.451668  15.777193 36.685643  4
28.447286  14.699667 36.182150  4
29.788955  14.078295 37.151988  4
29.093614  13.073751 35.882708  4
29.835765  12.923039 33.120788  4
27.319849  15.559789 32.743839  4
25.741254  13.529281 31.064277  4
25.298831  14.407491 33.966216  4
25.931078  12.830451 33.457051  4
24.283980  13.292451 33.035329  4
24.874702  16.259955 32.143154  4
23.796797  15.054088 31.424272  4
25.052218  15.800288 30.437657  4
27.479167  14.792679 29.875761  4
11.232955  9.064802 29.073747  1
10.491354  9.160471 27.729277  1
10.768272  10.533885 27.109156  1
10.931658  8.014740 26.795465  1
10.719200  6.636254 27.254546  3
9.620592  5.892483 27.544238  1
9.776358  4.669135 27.612672  2
8.219046  6.520948 27.671717  1
7.445909  5.907768 28.871796  1
8.164354  6.216766 30.192363  1
5.999409  6.415878 28.973967  1
7.551748  6.236496 26.402222  3
7.605012  6.956785 25.242235  1
7.294546  6.394895 24.195018  2
8.129475  8.412524 25.258187  1
7.233063  9.300493 24.349319  1
5.793297  9.366698 24.870117  1
7.775479  10.729335 24.215843  1
9.482805  8.345094 24.707109  3
10.686197  8.093369 25.273553  1
11.612109  7.825364 24.497728  2
10.917591  9.865794 29.751004  4
12.316991  9.153317 28.936958  4
11.031129  8.111779 29.573031  4
9.428094  9.124842 27.955396  4
11.821052  10.641521 26.828383  4
10.523078  11.334733 27.815422  4
10.158691  10.693445 26.215794  4
12.032527  8.086393 26.831996  4
11.513973  6.024031 27.092016  4
8.279893  7.588651 27.820717  4
7.400840  4.816587 28.760844  4
8.180946  7.293611 30.393499  4
9.197201  5.856811 30.181565  4
7.658241  5.725284 31.030548  4
5.949324  7.509777 28.948225  4
5.539062  6.086390 29.913845  4
5.380895  6.024136 28.160338  4
7.342507  5.258483 26.219318  4
8.153008  8.831417 26.259368  4
7.201828  8.870232 23.338820  4
5.752091  9.824270 25.863956  4
5.340043  8.372887 24.931355  4
5.169460  9.965079 24.196472  4
7.893075  11.204164 25.195269  4
7.091507  11.348566 23.623831  4
8.744704  10.743363 23.707345  4
9.527175  8.172601 23.706461  4
13.479269  17.117389 7.503562  1
14.742145  17.122963 6.625019  1
14.465632  17.954215 5.368014  1
15.942068  17.675728 7.420762  1
16.331747  16.973023 8.649775  3
16.806232  15.729877 8.920900  1
17.321656  15.558308 10.030147  2
16.810466  14.608577 7.863441  1
16.384670  13.253697 8.493455  1
14.943726  13.329812 9.016355  1
16.483771  12.078570 7.508450  1
18.182243  14.558277 7.359935  3
18.739673  15.300695 6.357284  1
19.963834  15.391996 6.314069  2
17.832550  16.069176 5.366802  1
18.390123  15.917996 3.923077  1
18.372098  14.456512 3.462339  1
17.611900  16.764861 2.907789  1
17.901855  17.470172 5.781701  3
17.206604  18.185283 6.696916  1
17.688358  19.278293 7.019850  2
12.622943  16.713196 6.953060  4
13.216615  18.130844 7.828526  4
13.618333  16.500429 8.397034  4
14.899602  16.097929 6.297248  4
14.319146  19.011596 5.611434  4
13.564673  17.596828 4.857293  4
15.291687  17.879128 4.655877  4
15.542769  18.619839 7.830147  4
16.531498  17.593307 9.429675  4
16.132312  14.830870 7.053142  4
17.039157  13.022128 9.343773  4
14.232232  13.492092 8.199185  4
14.821296  14.140831 9.740037  4
14.667996  12.398446 9.523099  4
15.967210  12.292181 6.566474  4
16.030169  11.175777 7.936307  4
17.526569  11.835671 7.281321  4
18.887459  14.244325 8.021637  4
16.804767  15.720845 5.393586  4
19.433512  16.261474 3.899172  4
17.350329  14.064655 3.427395  4
18.961941  13.816854 4.125493  4
18.803263  14.365916 2.458885  4
16.544940  16.519829 2.918931  4
17.984787  16.589621 1.891920  4
17.722041  17.834718 3.111347  4
18.784172  17.931664 5.577835  4
13.497458  19.176955 17.098046  1
12.085929  19.776605 16.976682  1
12.192445  21.304268 17.025692  1
11.412344  19.294130 15.675885  1
11.233007  17.848358 15.492316  3
10.520028  16.891849 16.141012  1
10.347357  15.823622 15.545526  2
9.856194  17.153508 17.507178  1
10.034656  15.932231 18.450869  1
11.521029  15.691049 18.747625  1
9.291626  16.094331 19.786013  1
8.445968  17.400003 17.209991  3
7.851610  18.580647 16.863523  1
6.759361  18.538442 16.303179  2
8.591827  19.918795 17.100020  1
7.595848  20.975123 17.657050  1
7.036270  20.557502 19.021237  1
8.235154  22.363352 17.790188  1
9.072947  20.335893 15.783097  3
10.196599  20.041742 15.087929  1
10.185348  20.323007 13.883019  2
13.980672  19.501528 18.025880  4
14.135762  19.490816 16.263936  4
13.465938  18.082794 17.107525  4
11.538360  19.469733 17.864892  4
12.713544  21.697708 16.146815  4
12.742180  21.626189 17.917010  4
11.203216  21.767355 17.071728  4
12.179710  19.514224 14.913594  4
11.478075  17.520754 14.561986  4
10.283563  18.018607 17.991796  4
9.638324  15.031326 17.964754  4
11.958605  16.532416 19.296220  4
12.096248  15.548434 17.828256  4
11.651207  14.788643 19.355058  4
9.529626  17.046982 20.271395  4
9.566510  15.291656 20.481717  4
8.207190  16.040346 19.647815  4
7.920935  16.605060 16.854813  4
9.425413  19.813080 17.787296  4
6.747617  21.074154 16.965742  4
7.832394  20.478486 19.768718  4
6.519404  19.594762 18.968012  4
6.308898  21.295073 19.378935  4
9.129893  22.331379 18.420256  4
7.531500  23.070892 18.244065  4
8.515757  22.769842 16.813361  4
8.349421  20.665805 15.150098  4
34.553694  8.269078 31.011706  1
35.139838  6.946722 30.487747  1
35.086012  5.904008 31.609065  1