NumberOfAtoms 477
SpinPolarized yes
#FixSpin .true.
#TotalSpin 
NumberOfSpecies 4

 
MD.TypeOfRun  nose
MD.FinalTimeStep 21
MD.LengthTimeStep 0.5  fs
MD.InitialTemperature 300 K 
MD.TargetTemperature  300  K


%block ChemicalSpeciesLabel
1  6  C
2  1  H
3  7  N
4  8  O
%endblock ChemicalSpeciesLabel

PAO.BasisSize szp 
 PAO.EnergyShift 0.02 Ry 
 
MeshCutoff          100 Ry
MaxSCFIterations    100  
DM.NumberPulay       3  
DM.Tolerance         1e-3
WriteDenchar	.true.

%block ProjectedDensityOfStates
-10.0 10.0 0.200 500 eV
%endblock ProjectedDensityOfStates
NetCharge 0.00

%block BandLines
1  1.000  1.000 1.000  L
20 0.00   0.00   0.00  \Gamma
25 2.00   0.000  0.00  X
30 2.00   2.00   2.00  \Gamma
%endblock BandLines


LongOutput .true.
WriteCoorXmol .true.
LatticeConstant 1 Ang
%block LatticeVectors
  47.836771 0.0 0.0
  0.0 46.392505 0.0
  0.0 0.0 47.747517
%endblock LatticeVectors


 

#UseSaveData .true.  
%block kgrid_Monkhorst_Pack
1 0 0 0.0 
 0 1 0 0.0 
 0 0 1 0.0 

%endblock kgrid_Monkhorst_Pack
WriteMDXmol .true.
AtomicCoordinatesFormat Ang
%block AtomicCoordinatesAndAtomicSpecies
39.058938  12.069706 1.209966  1 
37.868802  11.374035 1.771758  1 
37.834626  10.153597 2.331455  1 
39.038667  9.243915 2.446409  1 
36.555804  9.561718 2.850592  1 
35.659235  10.423213 3.752121  1 
34.498464  9.637078 4.392968  1 
34.839032  8.632650 5.534248  1 
33.553122  7.914916 5.954690  1 
35.945176  7.616056 5.193134  1 
36.203336  6.503581 6.227151  1 
37.329715  5.601575 5.701058  1 
37.745533  4.447773 6.633624  1 
36.596129  3.459399 6.851994  1 
39.046558  3.718841 6.191955  1 
39.048211  2.970362 4.841504  1 
38.964982  3.869890 3.607298  1 
38.798183  3.158970 2.256475  1 
37.586771  2.222190 2.244891  1 
38.622209  4.225269 1.165635  1 
38.996778  13.139148 1.428353  2 
39.081642  11.934398 0.125411  2 
39.993930  11.704843 1.634527  2 
36.934789  11.939182 1.700121  2 
39.785352  9.435118 1.671496  2 
38.753379  8.192046 2.340905  2 
39.513172  9.369571 3.427920  2 
36.886916  8.700974 3.406218  2 
35.970281  9.144852 2.021816  2 
35.214798  11.220034 3.139823  2 
36.241749  10.921996 4.534980  2 
33.925388  9.138421 3.601575  2 
33.811896  10.383516 4.822897  2 
35.184493  9.224250 6.391714  2 
33.204089  7.235629 5.172692  2 
32.752481  8.634884 6.166706  2 
33.711123  7.335833 6.869217  2 
36.893795  8.162419 5.169593  2 
35.745035  7.158546 4.224694  2 
35.295833  5.901599 6.353354  2 
36.470720  6.935387 7.197054  2 
38.203065  6.203649 5.441784  2 
36.898755  5.179748 4.794755  2 
37.979062  4.902277 7.609241  2 
36.885389  2.425875 6.640432  2 
35.726382  3.686005 6.228521  2 
36.270011  3.494097 7.897380  2 
39.273921  2.974307 6.967987  2 
39.886271  4.425222 6.214015  2 
38.247230  2.226432 4.843172  2 
39.987374  2.403724 4.776351  2 
39.831910  4.539354 3.586589  2 
38.100221  4.513959 3.664057  2 
39.704371  2.582182 2.036500  2 
37.853668  1.240525 2.649512  2 
37.208500  2.067013 1.227747  2 
36.759417  2.619359 2.845104  2 
37.669073  4.764372 1.290500  2 
38.617300  3.766369 0.176094  2 
39.428096  4.962740 1.196502  2 
17.303113  35.983028 37.422955  1 
17.314670  36.979808 37.502351  1 
16.462576  37.478698 37.660577  1 
15.598921  36.980817 37.739408  1 
14.746823  37.479716 37.897636  1 
13.883168  36.981835 37.976467  1 
13.031074  37.480725 38.134693  1 
12.167419  36.982844 38.213524  1 
11.315321  37.481743 38.371751  1 
10.451665  36.983862 38.450582  1 
9.599572  37.482752 38.608808  1 
8.735917  36.984871 38.687639  1 
7.883818  37.483770 38.845867  1 
7.020163  36.985888 38.924698  1 
6.168070  37.484779 39.082924  1 
5.304415  36.986898 39.161755  1 
4.452316  37.485797 39.319982  1 
3.588661  36.987915 39.398813  1 
2.736567  37.486806 39.557039  1 
1.872912  36.988924 39.635870  1 
1.020814  37.487823 39.794097  1 
0.157159  36.989942 39.872928  1 
32.328313  34.982192 12.130589  1 
30.895314  35.014274 12.585349  1 
30.203606  33.808834 12.729510  1 
28.890915  33.845997 13.156953  1 
28.228162  34.981517 13.452731  3 
28.885002  36.146524 13.323426  1 
28.213504  37.317773 13.648463  1 
28.824082  38.570233 13.554025  1 
30.134537  38.663111 13.109120  1 
30.830385  37.503035 12.771014  1 
30.226312  36.228130 12.882639  1 
32.685210  33.955270 11.996710  2 
32.974740  35.455414 12.876778  2 
32.435492  35.497433 11.170696  2 
30.674436  32.854463 12.519046  2 
28.317997  32.931764 13.282936  2 
27.184363  37.251261 13.993588  2 
28.271962  39.464858 13.829307  2 
30.618251  39.633030 13.028694  2 
31.855212  37.603247 12.423524  2 
28.081197  9.229624 10.321316  1 
27.224994  8.884363 11.551939  1 
27.713287  7.554725 12.136008  1 
27.299309  10.023449 12.589017  1 
26.853651  11.359292 12.173051  3 
25.663542  11.881428 11.779261  1 
25.562444  13.112354 11.790532  4 
24.452468  10.990194 11.440804  1 
23.712269  11.519221 10.181377  1 
24.629286  11.463032 8.951962  1 
22.429028  10.734349 9.867935  1 
23.596258  11.036707 12.625100  3 
23.665573  10.258529 13.746197  1 
23.122493  10.665472 14.770030  4 
24.485856  8.946541 13.728505  1 
23.698898  7.828654 14.469526  1 
22.377120  7.507521 13.763611  1 
24.513413  6.535498 14.603446  1 
25.719983  9.248897 14.453243  3 
26.900053  9.783364 14.060616  1 
27.650614  10.177145 14.962083  4 
28.024778  8.433545 9.571120  2 
29.135665  9.355343 10.593290  2 
27.741045  10.155410 9.846457  2 
26.212368  8.717925 11.191650  2 
28.724675  7.644682 12.545602  2 
27.728301  6.775328 11.366201  2 
27.051466  7.207679 12.933940  2 
28.386776  10.181946 12.692338  2 
27.475450  12.107665 12.466652  2 
24.756008  9.971727 11.249803  2 
23.423488  12.566662 10.337875  2 
24.897931  10.430441 8.703141  2 
25.553431  12.025288 9.114077  2 
24.131720  11.901163 8.079765  2 
22.610103  9.654596 9.834329  2 
22.022200  11.031320 8.893178  2 
21.650598  10.929427 10.612250  2 
23.163875  11.934699 12.826098  2 
24.714785  8.616904 12.719882  2 
23.458989  8.167114 15.486923  2 
22.550615  7.126318 12.751994  2 
21.733190  8.389031 13.691893  2 
21.820483  6.745607 14.320992  2 
24.842950  6.168942 13.625894  2 
23.912413  5.746969 15.071170  2 
25.397220  6.682766 15.232223  2 
25.609396  9.352026 15.458308  2 
12.853671  23.167011 14.892149  1 
12.060552  23.198246 13.813820  1 
10.696424  23.875123 13.813999  1 
10.340637  25.154955 14.568495  1 
10.354538  25.046406 16.009388  1 
9.477292  23.923664 16.441928  1 
9.713795  23.788302 18.002884  1 
11.479887  23.568673 18.412982  1 
12.539516  24.692217 18.392036  1 
12.332296  26.140202 18.936760  1 
11.128375  27.050985 18.539742  1 
9.711935  26.889732 19.179536  1 
8.970075  25.620567 18.954679  1 
9.748568  24.086744 19.835302  1 
9.796143  22.272827 19.314951  1 
10.830473  21.099439 19.438157  1 
10.412639  19.829574 18.664819  1 
12.442346  22.387364 12.730063  4 
11.939088  22.646000 11.403196  1 
12.916546  23.560585 10.591567  1 
14.268056  23.057240 10.064700  1 
11.600634  21.349096 10.614463  1 
10.477537  20.494489 11.028019  4 
9.172810  20.909587 10.891119  1 
8.844335  22.083423 10.801082  4 
8.174965  19.722996 10.965517  1 
7.176003  19.337894 9.821482  1 
6.002073  20.261099 9.411619  1 
5.118030  19.686937 8.265702  1 
3.932732  20.574097 7.799971  1 
4.215325  21.955234 7.196403  1 
4.973386  23.053497 8.005703  1 
4.774842  23.849607 9.317415  1 
4.603026  23.801090 10.668494  1 
4.296948  22.825920 11.817117  1 
5.306208  22.592565 13.011981  1 
4.707894  21.686003 14.152469  1 
5.641488  21.460202 15.357026  1 
5.086187  20.485990 16.421966  1 
6.008703  20.178800 17.616228  1 
7.271511  19.394831 17.261521  1 
8.269467  20.079431 16.346304  1 
12.591653  23.656510 15.805065  2 
13.768203  22.592362 14.951601  2 
9.988550  23.095801 14.117168  2 
10.431924  24.190422 12.819941  2 
9.291468  25.397768 14.351820  2 
10.959329  26.006991 14.297455  2 
10.063381  26.009904 16.411929  2 
11.354932  24.926425 16.375066  2 
9.778457  22.932844 16.093361  2 
8.394777  24.085860 16.293502  2 
8.683251  23.132180 17.948736  2 
8.656344  23.907856 18.624616  2 
11.884892  22.701021 17.903424  2 
11.677299  23.286439 19.552042  2 
12.826540  24.735837 17.365577  2 
13.462197  24.275392 18.875379  2 
13.219734  26.661741 18.544846  2 
12.437437  26.174310 20.029737  2 
11.125174  27.134916 17.450784  2 
11.389529  28.073430 18.844204  2 
9.035953  27.657688 18.755034  2 
9.745617  26.897863 20.246171  2 
8.935702  25.675325 17.848336  2 
7.882826  25.566195 19.050262  2 
9.808479  24.193643 20.948065  2 
10.695708  24.778870 19.614930  2 
9.976315  22.065236 18.128099  2 
8.779753  21.859429 19.239303  2 
10.877094  20.983042 20.490565  2 
11.835029  21.220884 19.000877  2 
9.518062  19.415495 19.114642  2 
11.223038  19.098383 18.682622  2 
10.265763  19.996887 17.596278  2 
11.006115  23.190711 11.457171  2 
13.118925  24.464850 11.177028  2 
12.364581  23.880586 9.699121  2 
14.913810  22.599202 10.817830  2 
14.824002  23.919320 9.661241  2 
14.149072  22.360824 9.226899  2 
12.478817  20.693603 10.621608  2 
11.407149  21.621151 9.571431  2 
7.632411  19.817392 11.912755  2 
8.804809  18.828129 11.084387  2 
6.705604  18.400461 10.153120  2 
7.748033  19.090727 8.921107  2 
6.434455  21.197462 9.085011  2 
5.351067  20.458266 10.267625  2 
4.681184  18.731772 8.600431  2 
5.737195  19.425387 7.396699  2 
3.205086  20.690859 8.605463  2 
3.406872  19.994503 7.016110  2 
3.278086  22.359593 6.777470  2 
4.817661  21.774270 6.283810  2 
5.018034  23.863011 7.247165  2 
6.016107  22.740101 8.028285  2 
4.958364  24.899838 9.026786  2 
4.646738  24.809253 11.108270  2 
3.977076  21.864741 11.418101  2 
3.412965  23.266760 12.305516  2 
5.611639  23.546432 13.464841  2 
6.217945  22.119896 12.626775  2 
4.479755  20.702566 13.722325  2 
3.778978  22.110009 14.539785  2 
5.923593  22.398714 15.846023  2 
6.527439  21.063203 14.897555  2 
4.802711  19.532073 15.960327  2 
4.168676  20.925390 16.830189  2 
5.446177  19.561083 18.339050  2 
6.257605  21.096359 18.163349  2 
6.999702  18.430414 16.825277  2 
7.774880  19.156437 18.202403  2 
7.951150  20.251116 15.332366  2 
9.116286  19.415493 16.169266  2 
8.592022  21.038089 16.757268  2 
4.097628  4.058933 8.489379  1 
3.101639  4.050084 8.578463  1 
2.679716  4.128555 9.481692  1 
3.253781  4.215874 10.295837  1 
2.831858  4.294345 11.199066  1 
3.405914  4.381663 12.013207  1 
2.983990  4.460134 12.916436  1 
3.558056  4.547453 13.730582  1 
3.136132  4.625924 14.633811  1 
3.710197  4.713243 15.447956  1 
3.288274  4.791714 16.351185  1 
3.862330  4.879032 17.165326  1 
3.440407  4.957503 18.068555  1 
4.014472  5.044822 18.882700  1 
3.592548  5.123293 19.785930  1 
4.166605  5.210611 20.600071  1 
3.744681  5.289082 21.503300  1 
4.318746  5.376401 22.317445  1 
3.896823  5.454872 23.220674  1 
4.470879  5.542190 24.034815  1 
4.048956  5.620661 24.938044  1 
4.623021  5.707980 25.752189  1 
4.201097  5.786451 26.655419  4 
5.619001  5.716828 25.663101  1 
6.193066  5.804148 26.477246  1 
5.771142  5.882618 27.380476  1 
6.345199  5.969937 28.194617  1 
5.923275  6.048408 29.097846  1 
6.497340  6.135727 29.911991  1 
6.075417  6.214197 30.815220  1 
6.649473  6.301516 31.629361  1 
6.227550  6.379987 32.532590  1 
6.801615  6.467306 33.346735  4 
9.673510  15.975267 36.472353  1 
10.870463  16.669879 35.843820  1 
11.749181  17.338412 36.901533  1 
12.959496  18.067371 36.311165  1 
14.003415  17.180190 35.663764  1 
13.888828  16.989990 34.274933  1 
14.720448  16.158530 33.501144  1 
15.773212  15.483960 34.160282  1 
15.899160  15.687584 35.565400  1 
15.040582  16.519061 36.330433  1 
15.250785  16.594360 37.828888  1 
15.682812  17.947998 38.384056  1 
16.641255  14.652026 33.425303  1 
17.652350  14.013827 34.048214  3 
18.466406  13.243829 33.297539  1 
19.590765  12.486608 33.704624  1 
20.104453  11.871093 32.583904  1 
19.324063  12.232043 31.515013  3 
19.470333  11.929553 30.561759  2 
18.314753  13.069587 31.928218  1 
17.266044  13.709260 31.247313  1 
17.065741  13.558609 29.862497  1 
16.005360  14.221556 29.245860  1 
15.144172  15.032355 29.994855  1 
14.069079  15.693886 29.389535  1 
13.229976  16.459378 30.179835  1 
12.054159  17.205786 29.577206  1 
10.817407  17.396712 30.494144  1 
11.087440  18.264263 31.722926  1 
9.669129  18.050388 29.721112  1 
13.471147  16.625204 31.496569  3 
14.500541  16.001824 32.118501  1 
15.354970  15.184309 31.388378  1 
16.422800  14.516972 32.035342  1 
8.997147  15.611947 35.692491  2 
9.113039  16.655179 37.121445  2 
9.995492  15.115862 37.069234  2 
10.517362  17.423328 35.130013  2 
11.443660  15.927107 35.280089  2 
12.069435  16.602212 37.646702  2 
11.141602  18.081809 37.435460  2 
13.404853  18.677554 37.092947  2 
12.610583  18.808709 35.578674  2 
13.087417  17.521810 33.774259  2 
16.701494  15.155427 36.082481  2 
16.024111  15.871674 38.120559  2 
14.336427  16.256078 38.329012  2 
16.653418  18.252199 37.982798  2 
15.762969  17.888618 39.474867  2 
14.983444  18.756028 38.173766  2 
19.976564  12.408307 34.710941  2 
20.952731  11.212418 32.454852  2 
17.716492  12.933592 29.259278  2 
15.856068  14.094321 28.175697  2 
13.888790  15.604557 28.323065  2 
11.722273  16.649414 28.689165  2 
12.413842  18.179235 29.221484  2 
10.480338  16.409950 30.837803  2 
11.580473  19.204451 31.457967  2 
11.707148  17.734757 32.433625  2 
10.167553  18.488669 32.270958  2 
9.969075  19.025328 29.321334  2 
8.807102  18.212486 30.379259  2 
9.339268  17.420331 28.890980  2 
16.932794  22.341096 12.460710  1 
17.472339  20.970186 12.111219  1 
18.321158  20.431412 13.281938  1 
17.281901  20.275913 14.436254  1 
16.843624  21.665656 14.953925  1 
16.712729  22.716901 13.848220  1 
16.535990  24.074953 14.247307  1 
16.644951  25.030455 13.240190  1 
16.744882  24.545537 11.910583  1 
16.837862  23.262418 11.413637  1 
16.740702  25.556846 10.982320  1 
16.692073  25.367831 9.635576  1 
16.860673  24.078464 9.105949  1 
16.927864  23.050531 10.053066  3 
16.599224  26.472092 13.570516  1 
16.622691  27.459803 12.518798  1 
16.688923  26.914223 11.292284  1 
16.336790  24.496714 15.506322  3 
16.230157  25.849923 15.766197  1 
16.346662  26.928603 14.839656  1 
16.079950  28.393358 15.045731  1 
15.862205  29.239231 13.890746  1 
16.146958  28.781541 12.619899  1 
15.643747  29.375639 11.407521  1 
15.926745  28.895206 10.121734  1 
16.382282  27.592297 10.131833  1 
15.889108  29.060630 16.261201  1 
15.411032  30.340249 16.389867  3 
15.046595  31.012277 15.267869  1 
15.204457  30.480590 14.003738  1 
14.654920  31.186883 12.775444  1 
14.416563  30.260740 11.581722  1 
19.558825  21.355303 13.568231  1 
20.526591  21.504979 12.371522  1 
21.695120  22.472649 12.616092  1 
21.241238  23.895194 12.915657  1 
17.653115  19.307398 15.574472  1 
17.847508  17.864495 15.107613  1 
16.930080  23.681694 7.644458  1 
17.677301  24.633174 6.670797  1 
17.722917  24.094033 5.253532  1 
17.083477  26.018930 6.539337  1 
13.066003  29.432027 11.637761  1 
12.738565  28.478140 12.811515  1 
13.550684  27.214580 12.885531  1 
14.563663  32.425287 15.489658  1 
13.045921  32.537242 15.699151  1 
12.576022  33.996302 15.913915  1 
12.900210  34.869152 14.696692  1 
11.069648  34.107459 16.263588  1 
10.116509  33.666751 15.146355  1 
8.651015  33.823290 15.525747  1 
16.409985  26.634868 9.165314  3 
16.278816  28.458089 17.581515  1 
18.091487  21.010955 11.210399  2 
16.639931  20.296048 11.879011  2 
18.705086  19.448896 12.991554  2 
16.378856  19.826672 13.993525  2 
17.579497  22.021438 15.686654  2 
15.880901  21.572837 15.472432  2 
15.971126  26.023690 16.802350  2 
15.551577  29.355307 9.215123  2 
13.703816  31.683694 12.993835  2 
15.372654  31.964993 12.485354  2 
14.321126  30.901801 10.687199  2 
20.114893  20.985531 14.436147  2 
19.224836  22.358990 13.841136  2 
19.994490  21.869193 11.485968  2 
20.934544  20.521005 12.114654  2 
22.326384  22.495463 11.717224  2 
22.326117  22.105919 13.432676  2 
20.585676  24.272635 12.123940  2 
22.102276  24.566648 12.993515  2 
20.702222  23.946834 13.865368  2 
16.829919  19.296473 16.303126  2 
18.544415  19.648284 16.108614  2 
16.917301  17.453296 14.698348  2 
18.144163  17.229831 15.949412  2 
18.623610  17.776726 14.343767  2 
15.911026  23.479749 7.294140  2 
17.458635  22.715958 7.606973  2 
18.702301  24.754571 7.042226  2 
16.710082  23.934749 4.868721  2 
18.288760  23.164846 5.204762  2 
18.213408  24.828441 4.601547  2 
15.984568  25.989020 6.578972  2 
17.368903  26.599640 5.661330  2 
17.565184  26.596654 7.321324  2 
12.960549  28.859907 10.705099  2 
12.245375  30.162750 11.628281  2 
11.703690  28.139777 12.735198  2 
12.832594  29.021950 13.757647  2 
13.792567  26.748335 11.928258  2 
13.250020  26.483588 13.637356  2 
14.445621  27.541608 13.326979  2 
14.895635  33.042228 14.646316  2 
15.093851  32.816497 16.364036  2 
12.759874  31.926106 16.564070  2 
12.523034  32.109505 14.836660  2 
13.128820  34.401901 16.772847  2 
12.570825  34.388405 13.769404  2 
13.975338  35.052943 14.615835  2 
12.410373  35.845501 14.769181  2 
10.853181  35.157236 16.507322  2 
10.863764  33.535931 17.176940  2 
10.303447  32.622400 14.878570  2 
10.286197  34.272433 14.250203  2 
8.384471  33.197944 16.383214  2 
8.019474  33.527280 14.680912  2 
8.418229  34.865182 15.767069  2 
16.091734  26.893739 8.252903  2 
16.463349  29.244781 18.313463  2 
17.212237  27.893141 17.482937  2 
15.479560  27.815661 17.960785  2 
 %endblock AtomicCoordinatesAndAtomicSpecies

