NumberOfAtoms 3613
SpinPolarized yes
#FixSpin .true.
#TotalSpin 
NumberOfSpecies 4

 


%block ChemicalSpeciesLabel
1  6  c
2  1  h
3  7  n
4  8  o
%endblock ChemicalSpeciesLabel

PAO.BasisSize szp 
 PAO.EnergyShift 0.02 Ry 
 
MeshCutoff          100 Ry
MaxSCFIterations    100  
DM.NumberPulay       3  
DM.Tolerance         1e-3
WriteDenchar	.true.

%block ProjectedDensityOfStates
-10.0 10.0 0.200 500 eV
%endblock ProjectedDensityOfStates
NetCharge 0.00

%block BandLines
1  1.000  1.000 1.000  L
20 0.00   0.00   0.00  \Gamma
25 2.00   0.000  0.00  X
30 2.00   2.00   2.00  \Gamma
%endblock BandLines


LongOutput .true.
WriteCoorXmol .true.
LatticeConstant 1 Ang
%block LatticeVectors
  58.02958 0.0 0.0
  0.0 58.085943 0.0
  0.0 0.0 58.099271
%endblock LatticeVectors


 

#UseSaveData .true.  
%block kgrid_Monkhorst_Pack
1 0 0 0.0 
 0 1 0 0.0 
 0 0 1 0.0 

%endblock kgrid_Monkhorst_Pack
WriteMDXmol .true.
AtomicCoordinatesFormat Ang
%block AtomicCoordinatesAndAtomicSpecies
44.564436  35.589749 45.830000  1 
43.391035  36.480910 46.042023  1 
42.443577  36.798120 45.144471  1 
42.442835  36.312811 43.710970  1 
41.313176  37.725109 45.488118  1 
40.541424  37.491136 46.795184  1 
39.277392  38.363729 46.925129  1 
38.051772  38.011647 46.029989  1 
36.955688  39.054343 46.268448  1 
38.363988  37.881639 44.526994  1 
37.159235  37.694935 43.585107  1 
37.679488  37.591114 42.143693  1 
36.603128  37.363775 41.064986  1 
35.627452  38.541795 40.987372  1 
37.179979  37.009573 39.664678  1 
38.050802  38.059163 38.940820  1 
39.410005  38.325357 39.589705  1 
40.233878  39.477449 38.996520  1 
39.450980  40.793441 38.975361  1 
41.499676  39.656717 39.847116  1 
44.756935  35.012900 46.738544  2 
45.446368  36.195790 45.606406  2 
44.406226  34.877905 45.020164  2 
43.323936  36.915224 47.043907  2 
43.447071  36.087692 43.342976  2 
42.034152  37.071125 43.035035  2 
41.826225  35.409628 43.619541  2 
40.637215  37.612644 44.657659  2 
41.649892  38.767502 45.428764  2 
41.200426  37.744019 47.637280  2 
40.273489  36.435530 46.917169  2 
39.556088  39.416932 46.796790  2 
38.940937  38.277251 47.970453  2 
37.668723  37.042627 46.374745  2 
37.240207  40.028816 45.863199  2 
36.753489  39.173933 47.340429  2 
36.016444  38.746758 45.799542  2 
38.934605  36.956977 44.391570  2 
38.944876  38.740257 44.191444  2 
36.495220  38.563923 43.661366  2 
36.591950  36.799821 43.860099  2 
38.444522  36.814897 42.075391  2 
38.136724  38.565471 41.980556  2 
36.027157  36.479075 41.378836  2 
35.525336  38.936018 39.972107  2 
35.927096  39.375190 41.629398  2 
34.630635  38.220247 41.308853  2 
36.321967  36.802464 39.009566  2 
37.732102  36.063015 39.726039  2 
37.478473  38.983751 38.828644  2 
38.235812  37.692244 37.921755  2 
39.994642  37.398946 39.601371  2 
39.288304  38.606667 40.625036  2 
40.535033  39.218522 37.974507  2 
38.834966  40.861999 38.072896  2 
40.121940  41.660340 38.982340  2 
38.787042  40.886011 39.843193  2 
41.248348  40.015993 40.858277  2 
42.169142  40.387561 39.391607  2 
42.043636  38.714968 39.954288  2 
30.401087  15.599599 38.723138  1 
31.174083  16.682137 38.054871  1 
32.482167  16.949999 38.200000  1 
33.400973  16.189579 39.131669  1 
33.137896  18.087421 37.470959  1 
32.878477  18.243065 35.965223  1 
33.773359  19.304674 35.295704  1 
35.281188  18.967567 35.095222  1 
35.980586  20.190386 34.494362  1 
36.011899  18.489471 36.364419  1 
37.536715  18.299714 36.253213  1 
38.069320  17.828010 37.614442  1 
39.583897  17.551760 37.674321  1 
40.397844  18.823131 37.415856  1 
40.042655  16.837619 38.977633  1 
39.863016  17.574464 40.322525  1 
38.410952  17.758295 40.766440  1 
38.184390  18.627929 42.011573  1 
38.817016  20.015104 41.867557  1 
36.671853  18.782732 42.226428  1 
29.657741  15.196887 38.029940  2 
29.882489  16.007219 39.594910  2 
31.033395  14.770434 39.039775  2 
30.585078  17.315850 37.385257  2 
32.868740  15.745301 39.976614  2 
34.161966  16.847745 39.563709  2 
33.915782  15.390436 38.583354  2 
34.188425  17.912186 37.628806  2 
32.936369  19.032933 37.989493  2 
31.835670  18.559072 35.823622  2 
32.986838  17.287089 35.440491  2 
33.660854  20.255407 35.831265  2 
33.353301  19.484081 34.293333  2 
35.334874  18.157983 34.356118  2 
36.041259  21.007857 35.217437  2 
35.444231  20.554273 33.608789  2 
36.995227  19.939578 34.171469  2 
35.648835  17.481179 36.589085  2 
35.799492  19.164215 37.193184  2 
38.008365  19.256249 35.999326  2 
37.777273  17.575311 35.468334  2 
37.516963  16.947573 37.949385  2 
37.841767  18.668417 38.267885  2 
39.806146  16.846634 36.858023  2 
41.138182  19.013836 38.198245  2 
39.768023  19.714444 37.342262  2 
40.945520  18.727977 36.471724  2 
41.117262  16.633935 38.868164  2 
39.566202  15.850890 39.040362  2 
40.387359  18.532675 40.278937  2 
40.374250  16.984642 41.095895  2 
37.942125  16.776054 40.891252  2 
37.839497  18.259029 39.999262  2 
38.610669  18.124430 42.887372  2 
39.871287  19.991319 42.161774  2 
38.314703  20.753785 42.502996  2 
38.764461  20.381192 40.835214  2 
36.216207  19.373578 41.415269  2 
36.467267  19.296121 43.166844  2 
36.172108  17.811190 42.251536  2 
35.407353  11.809864 27.480850  1 
35.815593  12.914883 28.390940  1 
36.519474  14.011771 28.066462  1 
37.062794  14.286535 26.680909  1 
36.876140  15.049473 29.091730  1 
35.775819  15.563138 30.032054  1 
36.211709  16.772778 30.882262  1 
36.371814  18.147944 30.167655  1 
36.887640  19.170796 31.184107  1 
37.266392  18.125501 28.913620  1 
37.584723  19.487607 28.268041  1 
38.484103  19.249041 27.046026  1 
38.873493  20.511164 26.252764  1 
39.707742  21.474176 27.102667  1 
39.562430  20.211353 24.890943  1 
40.924225  19.483769 24.899855  1 
40.871009  18.024511 25.354913  1 
42.222235  17.317571 25.534847  1 
43.147973  18.079483 26.487584  1 
41.963462  15.912772 26.098292  1 
34.411228  11.454481 27.757801  2 
36.113716  10.980828 27.574850  2 
35.362494  12.123684 26.438213  2 
35.500530  12.788464 29.430967  2 
37.241908  13.371492 26.110644  2 
38.023997  14.808905 26.727482  2 
36.361391  14.916811 26.119577  2 
37.241261  15.870665 28.498801  2 
37.747296  14.721317 29.672148  2 
35.508330  14.755243 30.727117  2 
34.862654  15.812061 29.479657  2 
37.128335  16.514505 31.426751  2 
35.440919  16.907027 31.657661  2 
35.369390  18.467237 29.854958  2 
37.921356  18.959614 31.469784  2 
36.272444  19.166465 32.092867  2 
36.843260  20.184071 30.774271  2 
36.714057  17.598306 28.128805  2 
38.201717  17.611101 29.132274  2 
38.121513  20.118132 28.986488  2 
36.661741  20.000358 27.978469  2 
38.024634  18.517040 26.378556  2 
39.383477  18.822639 27.486886  2 
37.932686  21.025040 26.000273  2 
40.643143  21.762414 26.614257  2 
39.968507  21.052056 28.077525  2 
39.142523  22.395235 27.283125  2 
39.722646  21.179090 24.394893  2 
38.865902  19.665437 24.241788  2 
41.634043  20.059282 25.499811  2 
41.315240  19.497069 23.873072  2 
40.225257  17.455856 24.676820  2 
40.411720  17.946685 26.329004  2 
42.710868  17.216467 24.558493  2 
43.703858  18.853863 25.949117  2 
43.881818  17.412040 26.954214  2 
42.588803  18.567286 27.294982  2 
41.563982  15.966154 27.124089  2 
42.888088  15.335039 26.131374  2 
41.240469  15.366204 25.487707  2 
35.920689  4.557052 0.752850  1 
36.288171  5.199203 0.080088  1 
37.127980  5.704680 0.278090  1 
37.600314  5.568013 1.148850  1 
38.440130  6.073497 1.346849  1 
38.912464  5.936830 2.217609  1 
39.752272  6.442307 2.415611  1 
40.224606  6.305640 3.286371  1 
41.064422  6.811124 3.484369  1 
41.536756  6.674457 4.355129  1 
42.376565  7.179934 4.553131  1 
42.848898  7.043268 5.423891  1 
43.688714  7.548751 5.621890  1 
44.161048  7.412085 6.492650  1 
45.000857  7.917562 6.690651  1 
45.473190  7.780895 7.561411  1 
46.313006  8.286379 7.759410  1 
46.785340  8.149712 8.630170  1 
47.625149  8.655189 8.828172  1 
48.097483  8.518522 9.698932  1 
48.937298  9.024006 9.896931  1 
49.409632  8.887339 10.767691  1 
0.837212  35.532265 0.000006  1 
0.423685  36.071443 0.733683  1 
0.952993  36.789227 1.186021  1 
1.895837  36.967838 0.904683  1 
2.425154  37.685627 1.357022  1 
3.367989  37.864233 1.075683  1 
3.897306  38.582022 1.528022  1 
4.840142  38.760627 1.246682  1 
5.369458  39.478417 1.699021  1 
6.312294  39.657022 1.417682  1 
6.841611  40.374812 1.870021  1 
7.784446  40.553417 1.588682  1 
8.313763  41.271206 2.041021  1 
9.256599  41.449812 1.759682  1 
9.785915  42.167601 2.212020  1 
10.728751  42.346207 1.930681  1 
11.258068  43.063996 2.383020  1 
36.602134  0.053096 2.035741  1 
36.506852  1.029302 2.230531  1 
37.314754  1.618541 2.239569  1 
38.217949  1.231574 2.053816  1 
39.025862  1.820814 2.062853  1 
39.929047  1.433847 1.877101  1 
40.736959  2.023086 1.886138  1 
41.640144  1.636119 1.700386  1 
42.448057  2.225359 1.709423  1 
43.351242  1.838391 1.523671  1 
44.159154  2.427631 1.532708  1 
45.062339  2.040664 1.346956  1 
45.870252  2.629903 1.355993  1 
46.773437  2.242936 1.170240  1 
47.581350  2.832176 1.179278  1 
48.484535  2.445208 0.993525  1 
49.292447  3.034448 1.002562  1 
13.920788  25.953678 34.933397  1 
14.004638  26.985634 33.842821  1 
14.682071  28.181763 34.093195  1 
14.763135  29.120399 33.083424  1 
14.230290  28.953465 31.856907  3 
13.581467  27.804642 31.602674  1 
13.050036  27.618455 30.333304  1 
12.370723  26.450339 29.980572  1 
12.201010  25.444647 30.920593  1 
12.720049  25.607907 32.204432  1 
13.427124  26.779639 32.564761  1 
14.465308  26.270073 35.829644  2 
14.365796  25.010711 34.599650  2 
12.877912  25.787085 35.221516  2 
15.144681  28.382892 35.053581  2 
15.281415  30.062679 33.236461  2 
13.176227  28.405587 29.593600  2 
11.979258  26.333715 28.973534  2 
11.671093  24.532905 30.657712  2 
12.571933  24.805921 32.922722  2 
48.272670  1.571177 48.514364  1 
48.006456  2.376973 47.283084  1 
47.439138  1.749068 46.218029  3 
47.183153  2.443271 45.087940  1 
47.456474  3.788959 44.907726  1 
48.041453  4.459877 45.990675  1 
48.469769  5.807878 46.213419  1 
48.468404  6.980898 45.430394  1 
48.976563  8.168868 45.969040  1 
49.481254  8.201034 47.266811  1 
49.493541  7.052557 48.063285  1 
48.981738  5.873898 47.508005  1 
48.869263  4.616104 48.049881  3 
49.163922  4.370555 48.983343  2 
48.303220  3.738338 47.154105  1 
47.956844  0.532155 48.379226  2 
47.724064  1.989907 49.363583  2 
49.342509  1.578476 48.744368  2 
46.729641  1.861953 44.289557  2 
47.227306  4.290146 43.975932  2 
48.077169  6.966263 44.417575  2 
48.976455  9.074241 45.367009  2 
49.871831  9.133673 47.667823  2 
49.887988  7.081765 49.073694  2 
2.153447  0.773680 47.486060  1 
2.090527  2.180225 46.972443  1 
2.107525  3.257710 47.844085  1 
2.192910  4.554843 47.328276  1 
2.276710  5.652882 48.202138  1 
2.468838  6.954184 47.711466  1 
2.630356  8.064453 48.545122  1 
2.861996  9.324935 48.108027  3 
2.923659  9.495640 46.773803  1 
2.750524  8.473322 45.855571  1 
2.524640  7.172786 46.326840  1 
2.383596  6.077957 45.452700  1 
2.234266  4.750144 45.931468  1 
2.148679  3.594055 45.121135  1 
2.203904  3.627222 43.621812  1 
2.093231  2.335500 45.632906  3 
2.064700  0.733134 48.576122  2 
3.115138  0.330102 47.206836  2 
1.347482  0.174703 47.052733  2 
2.099632  3.086857 48.916302  2 
2.233888  5.491815 49.275763  2 
2.595566  7.965423 49.626602  2 
3.128514  10.510971 46.445069  2 
2.813024  8.687290 44.793305  2 
2.423762  6.270029 44.385564  2 
1.978130  4.605435 43.193841  2 
1.467103  2.927816 43.210846  2 
3.198949  3.318094 43.285175  2 
14.559387  39.581479 47.563610  1 
13.082797  39.549980 47.818677  1 
12.370648  38.359577 47.794568  1 
10.977144  38.350275 48.037881  1 
10.169049  37.173709 48.033481  1 
10.719258  35.927721 47.782132  4 
8.781656  37.181825 48.278583  1 
8.066110  36.032054 48.262378  3 
6.742243  36.078661 48.501462  1 
6.055539  37.242987 48.766245  1 
6.769064  38.440999 48.788478  1 
6.025415  39.718474 49.077366  1 
8.167138  38.419253 48.539764  1 
8.960139  39.587715 48.545193  1 
10.352831  39.586949 48.301607  1 
11.157890  40.752495 48.307052  1 
10.637565  42.138270 48.572598  1 
12.493809  40.732034 48.069932  3 
14.961714  38.582050 47.372536  2 
15.077087  39.997210 48.433644  2 
14.771740  40.207715 46.691531  2 
12.920560  37.449956 47.584421  2 
11.666843  35.985557 47.620520  2 
6.234034  35.119381 48.472663  2 
4.987466  37.210218 48.950479  2 
4.958412  39.536930 49.242854  2 
6.112548  40.408589 48.231751  2 
6.420765  40.192249 49.981890  2 
8.462553  40.529390 48.748577  2 
9.568843  42.194837 48.777718  2 
10.836847  42.773785 47.703414  2 
11.156857  42.561014 49.439102  2 
32.060440  3.559865 14.744423  1 
32.615086  3.537403 16.179201  1 
31.566311  4.133949 17.123502  1 
32.990840  2.096998 16.582453  1 
33.995255  1.397915 15.770942  3 
35.312666  1.601007 15.511638  1 
35.939507  0.652878 15.028265  4 
36.029904  2.908279 15.901713  1 
36.991190  3.369243 14.771509  1 
36.206837  3.688581 13.491527  1 
37.818330  4.605479 15.156913  1 
36.757756  2.597011 17.131006  3 
36.297837  2.641683 18.416969  1 
36.909832  2.010548 19.274817  4 
34.989826  3.400398 18.745525  1 
35.170958  4.207411 20.062342  1 
36.255329  5.280990 19.920538  1 
33.868440  4.878927 20.516360  1 
33.975041  2.363850 18.933979  3 
33.168226  1.709538 18.066049  1 
32.618559  0.686517 18.493062  4 
31.803185  4.580579 14.441635  2 
31.153662  2.949810 14.659178  2 
32.794373  3.177978 14.027641  2 
33.471120  4.208153 16.194093  2 
30.675480  3.500295 17.184074  2 
31.253170  5.125481 16.778399  2 
31.968078  4.255446 18.132941  2 
32.077491  1.531722 16.328213  2 
33.747525  0.436801 15.552341  2 
35.323156  3.703193 16.087489  2 
37.699106  2.562923 14.539730  2 
35.528296  4.535526 13.641842  2 
35.613174  2.831828 13.159873  2 
36.890324  3.945378 12.674729  2 
37.186696  5.415769 15.536720  2 
38.364099  4.992340 14.287242  2 
38.563987  4.363864 15.920871  2 
37.527227  1.939036 17.037580  2 
34.692993  4.074881 17.948435  2 
35.481044  3.525537 20.866148  2 
35.985980  6.017751 19.156719  2 
37.221894  4.845342 19.650696  2 
36.394272  5.812629 20.868738  2 
33.463502  5.531587 19.736215  2 
34.040310  5.491512 21.409077  2 
33.105801  4.137905 20.776033  2 
34.066990  1.828919 19.793290  2 
23.990695  2.687098 6.599040  1 
23.243395  3.638261 5.648484  1 
23.957543  4.993796 5.644159  1 
23.170401  3.028503 4.233762  1 
22.503097  1.729489 4.080843  3 
21.232063  1.289173 4.266986  1 
20.936118  0.204487 3.755714  4 
20.167975  2.144176 4.982694  1 
19.309980  1.271040 5.939458  1 
20.181435  0.671191 7.051342  1 
18.158567  2.052299 6.591270  1 
19.356506  2.724515 3.913795  3 
19.587672  3.871811 3.208461  1 
19.022051  4.012700 2.127259  4 
20.605866  4.911847 3.733910  1 
20.033465  6.345142 3.543890  1 
18.756490  6.555222 4.364708  1 
21.048167  7.431328 3.923625  1 
21.800011  4.740339 2.906664  3 
22.865387  3.911029 3.004631  1 
23.573930  3.807054 1.995571  4 
24.036415  3.103545 7.611068  2 
25.020260  2.517327 6.263102  2 
23.490949  1.715358 6.664211  2 
22.258583  3.801723 6.080160  2 
24.955043  4.919426 5.198930  2 
24.070398  5.375820 6.664752  2 
23.387440  5.738178 5.082001  2 
24.221494  2.754898 4.036974  2 
23.007103  1.078475 3.484976  2 
20.623538  2.932075 5.563703  2 
18.863165  0.440624 5.377513  2 
20.602842  1.453646 7.692051  2 
21.008934  0.085159 6.641137  2 
19.590628  -0.000335 7.684002  2 
18.508503  2.979300 7.058173  2 
17.676301  1.451020 7.372126  2 
17.384996  2.306461 5.859829  2 
18.793415  2.069477 3.377512  2 
20.849730  4.757921 4.780440  2 
19.777660  6.496494 2.486125  2 
18.953798  6.455228 5.437021  2 
17.977961  5.836979 4.091083  2 
18.348156  7.556790 4.188203  2 
21.398250  7.307231 4.953483  2 
20.597238  8.427134 3.841287  2 
21.918172  7.415695 3.259541  2 
21.708953  5.077331 1.952115  2 
31.611633  0.665006 6.608984  1 
31.488624  2.108059 6.090149  1 
30.696491  2.095519 4.778711  1 
30.816301  3.000689 7.153053  1 
31.469646  3.117393 8.462877  3 
32.658798  3.616881 8.887712  1 
32.772065  3.836707 10.097825  4 
33.781189  4.002088 7.904144  1 
35.167014  3.552986 8.444248  1 
35.228406  2.024678 8.570913  1 
36.333250  4.015275 7.557027  1 
33.700726  5.456484 7.777348  3 
32.914013  6.186418 6.931475  1 
32.704033  7.365146 7.205854  4 
32.244124  5.504025 5.714890  1 
32.349581  6.432433 4.471901  1 
33.808819  6.671101 4.069156  1 
31.589274  5.873115 3.262473  1 
30.840381  5.332232 6.088691  3 
30.190556  4.358161 6.767876  1 
29.053694  4.635130 7.170217  4 
32.100989  0.024317 5.867521  2 
30.626536  0.233780 6.821843  2 
32.206268  0.621122 7.527001  2 
32.495522  2.440049 5.847538  2 
29.656879  1.793214 4.941757  2 
31.143359  1.397194 4.062513  2 
30.695279  3.082784 4.309188  2 
29.912996  2.422466 7.413975  2 
30.827782  3.047260 9.247726  2 
33.631369  3.542815 6.938475  2 
35.328114  3.979881 9.442660  2 
35.141608  1.540731 7.591838  2 
34.428508  1.642212 9.211491  2 
36.178911  1.712926 9.017690  2 
36.177166  3.746573 6.506683  2 
37.273181  3.550736 7.880424  2 
36.474754  5.098952 7.617323  2 
33.940092  5.989218 8.609600  2 
32.690855  4.541988 5.484011  2 
31.906139  7.409153 4.709779  2 
34.298683  5.735062 3.781668  2 
34.383574  7.122738 4.883117  2 
33.863450  7.356952 3.216131  2 
31.937123  4.868007 3.003003  2 
31.733908  6.514071 2.384976  2 
30.512474  5.826613 3.453529  2 
30.296369  6.190561 6.107191  2 
17.082799  30.847691 16.340339  1 
16.219552  30.253272 15.507107  1 
16.508734  30.055278 14.025155  1 
17.876649  29.741070 13.421913  1 
18.858206  30.795566 13.534767  1 
18.313360  32.058753 12.964939  1 
19.391668  33.168473 13.306431  1 
19.758290  33.242152 15.094071  1 
20.626562  32.221435 15.862083  1 
21.972228  31.615828 15.353408  1 
22.147808  30.950204 13.952448  1 
22.334873  31.787973 12.646772  1 
21.227770  32.679017 12.208527  1 
20.935267  34.198933 13.365444  1 
19.342165  35.111121 13.805059  1 
18.769491  35.809656 15.088004  1 
17.300528  36.261731 14.936444  1 
14.929285  30.008095 16.010024  4 
14.072433  29.025398 15.392896  1 
14.212617  27.630142 16.088770  1 
13.653663  27.350053 17.491141  1 
12.583698  29.469832 15.323920  1 
12.175265  30.581573 14.452173  4 
12.195628  30.462315 13.081507  1 
12.878585  29.642153 12.485858  4 
11.331558  31.551184 12.390873  1 
10.115580  31.246898 11.450739  1 
10.293763  30.557676 10.075373  1 
8.963349  30.361692 9.290575  1 
9.075114  29.662111 7.909639  1 
9.596362  28.221923 7.833134  1 
11.017640  27.845700 8.356805  1 
12.486799  28.219104 8.047065  1 
13.420505  29.208079 7.960976  1 
13.567401  30.738519 7.948693  1 
14.406257  31.510411 9.044714  1 
14.557804  33.046619 8.732231  1 
15.399626  33.835221 9.753498  1 
15.455747  35.358821 9.494579  1 
16.234019  36.199931 10.523408  1 
15.601541  36.252558 11.913484  1 
15.514012  34.944402 12.677212  1 
18.046869  31.178243 16.019427  2 
16.851254  31.106014 17.364927  2 
16.120666  30.954255 13.533645  2 
15.962123  29.210619 13.643978  2 
17.754018  29.636612 12.335307  2 
18.326211  28.830990 13.811599  2 
19.764283  30.451122 13.049463  2 
19.166305  30.924993 14.553211  2 
17.429577  32.457124 13.469075  2 
18.182383  32.064273 11.868130  2 
18.786100  33.803291 12.454528  2 
19.797806  33.723207 12.283510  2 
18.852243  33.423099 15.662258  2 
20.424912  34.175942 15.409885  2 
19.940747  31.433421 16.077943  2 
20.811760  32.655648 16.879858  2 
22.144074  30.801185 16.074498  2 
22.806505  32.314499 15.503932  2 
21.408155  30.150444 13.873815  2 
23.088920  30.384925 13.984971  2 
22.458545  31.096497 11.790339  2 
23.123770  32.501553 12.732539  2 
20.452027  31.894301 12.105475  2 
21.129001  33.003986 11.169852  2 
21.827412  34.869084 13.456187  2 
21.354314  33.368892 14.113848  2 
18.357401  34.412428 13.967050  2 
18.885682  35.557656 12.909570  2 
19.465899  36.598521 15.214454  2 
18.653613  35.221730 16.013212  2 
17.242322  37.041653 14.186509  2 
16.920728  36.623059 15.893993  2 
16.614359  35.446500 14.699977  2 
14.364500  28.869117 14.363170  2 
15.272504  27.351291 16.106045  2 
13.708489  26.909955 15.432484  2 
13.974652  28.053386 18.263339  2 
14.005598  26.355546 17.810727  2 
12.559176  27.293881 17.493736  2 
12.255204  29.756831 16.329231  2 
11.980878  28.607779 15.019225  2 
12.021175  32.240258 11.890731  2 
10.893704  32.133277 13.216143  2 
9.670933  32.228083 11.228013  2 
9.361144  30.691199 12.017316  2 
10.736747  29.588419 10.261675  2 
10.972593  31.134445 9.441372  2 
8.513124  31.350616 9.104710  2 
8.227899  29.827860 9.907888  2 
9.653706  30.276680 7.217211  2 
8.049100  29.643418 7.492696  2 
9.448083  27.843297 6.807423  2 
8.881161  27.605152 8.413187  2 
11.012708  26.750669 8.173589  2 
10.950250  27.868992 9.443502  2 
13.002344  27.244964 7.967091  2 
14.424477  28.789297 7.792545  2 
12.591230  31.208293 7.840067  2 
14.113048  30.941084 7.012992  2 
15.415102  31.085381 9.143779  2 
13.917995  31.394834 10.020064  2 
13.555078  33.492160 8.716272  2 
15.012825  33.201370 7.751575  2 
16.421725  33.450351 9.835320  2 
14.904808  33.621105 10.682445  2 
14.443119  35.773433 9.416403  2 
15.937772  35.514650 8.522513  2 
16.278805  37.241286 10.157270  2 
17.280476  35.876143 10.580822  2 
14.601833  36.689469 11.850381  2 
16.189984  36.958214 12.506153  2 
14.849851  34.198218 12.275999  2 
15.041458  35.118345 13.644526  2 
16.497545  34.483989 12.789643  2 
31.324525  14.258185 18.074580  1 
32.036083  14.937645 17.166382  1 
32.898996  14.252270 16.115359  1 
32.564506  12.938350 15.411406  1 
32.559808  11.767728 16.258620  1 
33.857848  11.658493 16.979981  1 
33.667941  10.460261 17.999303  1 
32.218916  10.704803 19.083748  1 
30.748230  10.515310 18.651572  1 
30.208879  9.345640 17.769926  1 
30.830716  8.937397 16.397618  1 
32.126292  8.070220 16.292140  1 
33.397833  8.622592 16.830437  1 
33.435041  8.780620 18.756003  1 
34.290813  10.049007 19.861523  1 
33.953271  10.759984 21.218885  1 
34.959326  11.868951 21.597355  1 
32.130440  16.328082 17.355082  4 
32.486150  17.197675 16.260542  1 
31.213578  17.750098 15.535272  1 
30.293955  18.801242 16.173172  1 
33.436476  18.354048 16.682789  1 
34.819653  18.071903 17.095032  4 
35.762124  17.636896 16.191771  1 
35.481791  17.095076 15.132649  4 
37.207778  17.826574 16.724062  1 
38.303426  18.690894 16.011636  1 
38.893435  18.296377 14.635172  1 
39.980575  19.279225 14.109381  1 
40.599776  18.945116 12.725962  1 
39.701086  18.917277 11.483676  1 
38.480032  17.949930 11.388426  1 
38.225604  16.423883 11.404053  1 
38.356809  15.250618 12.084880  1 
39.061720  14.627152 13.300761  1 
38.255850  13.999876 14.508179  1 
39.182984  13.270777 15.551915  1 
38.439241  12.610711 16.728649  1 
39.364030  11.988116 17.800417  1 
38.669816  11.370183 19.028378  1 
37.958565  12.376188 19.932363  1 
36.783040  13.125407 19.333176  1 
31.286992  13.190398 18.084596  2 
30.802842  14.721293 18.901323  2 
33.886350  14.146268 16.578214  2 
33.008156  14.880742 15.248968  2 
33.369909  12.719828 14.697099  2 
31.618734  12.959519 14.875426  2 
32.333555  10.912512 15.632079  2 
31.732675  11.791036 16.939950  2 
34.086932  12.482943 17.659487  2 
34.729391  11.408850 16.348897  2 
34.888562  10.512054 18.052699  2 
34.514100  9.582960 17.816537  2 
32.302527  11.639749 19.627242  2 
32.147747  9.919639 19.975117  2 
30.508561  11.447436 18.191569  2 
30.129457  10.550086 19.586781  2 
29.192651  9.692814 17.525184  2 
30.066123  8.431932 18.362863  2 
30.826965  9.823292 15.758821  2 
30.096432  8.293560 15.895032  2 
32.357170  7.897081 15.222734  2 
32.059406  7.170525 16.862216  2 
33.436029  9.527604 16.191947  2 
34.371028  8.261591 16.488716  2 
33.295822  7.804820 19.286748  2 
32.278418  8.922387 18.497538  2 
34.271535  11.200032 19.462848  2 
35.381859  10.014176 19.727079  2 
33.936008  9.931825 21.880049  2 
33.030475  11.357840 21.297066  2 
35.927779  11.422437 21.789172  2 
34.605949  12.408468 22.478122  2 
35.039947  12.659922 20.849551  2 
33.034918  16.646542 15.508765  2 
30.579205  16.904263 15.246216  2 
31.568381  18.209762 14.604493  2 
29.928638  18.547984 17.171373  2 
29.402278  18.912761 15.534804  2 
30.762456  19.791429 16.206334  2 
32.987456  18.887637 17.528123  2 
33.506141  19.063356 15.851287  2 
37.606129  16.828309 16.936950  2 
37.088448  18.303160 17.709072  2 
39.159225  18.698071 16.702719  2 
37.952052  19.726125 15.949846  2 
38.071208  18.274772 13.932407  2 
39.339479  17.299131 14.679622  2 
40.815578  19.301117 14.828762  2 
39.594024  20.307462 14.093705  2 
41.153409  18.005359 12.773575  2 
41.365280  19.723277 12.537901  2 
40.336605  18.829338 10.586007  2 
39.291467  19.941675 11.377831  2 
38.071698  18.243373 10.398557  2 
37.720641  18.363064 12.050725  2 
37.564340  16.251040 10.535730  2 
37.815161  14.437470 11.577816  2 
39.820513  15.307356 13.684105  2 
39.604489  13.767518 12.875640  2 
37.511531  13.273202 14.152979  2 
37.701052  14.793947 15.022681  2 
39.873431  14.013055 15.972068  2 
39.776358  12.491927 15.068202  2 
37.721621  11.853718 16.394749  2 
37.872550  13.426682 17.136919  2 
40.089470  12.728409 18.159765  2 
39.939307  11.187806 17.320724  2 
39.438524  10.876144 19.649261  2 
37.989552  10.563953 18.727646  2 
38.678116  13.102895 20.317635  2 
37.605056  11.825215 20.808109  2 
37.009589  13.820091 18.542630  2 
36.371307  13.810361 20.075181  2 
36.022752  12.436942 18.959095  2 
46.984335  43.240065 18.936816  1 
46.153028  44.106872 18.344886  1 
44.647088  43.890339 18.279576  1 
43.793676  43.252628 19.374488  1 
44.046027  41.850438 19.616008  1 
43.921024  41.086181 18.344203  1 
44.392300  39.614549 18.694974  1 
46.062820  39.586312 19.432578  1 
46.396029  39.994363 20.884498  1 
45.557319  39.614928 22.145023  1 
44.018624  39.848967 22.264256  1 
42.974206  38.891601 21.605256  1 
42.954049  38.772822 20.122967  1 
44.507117  37.893354 19.382239  1 
45.397787  38.164626 17.740155  1 
46.889305  38.121786 17.254982  1 
47.075275  38.605164 15.800005  1 
46.749111  45.130740 17.587124  4 
46.018095  46.332893 17.269031  1 
46.285000  47.457856 18.324422  1 
47.624592  48.203072 18.412001  1 
46.283472  46.845366 15.824886  1 
45.810720  46.079914 14.661565  4 
44.470151  45.974167 14.369922  1 
43.584842  46.143670 15.195386  4 
44.228414  45.520005 12.905502  1 
43.423538  46.348503 11.846819  1 
41.902492  46.603335 11.987843  1 
41.291000  47.434283 10.821687  1 
39.771284  47.735686 10.913934  1 
39.236314  48.565829 12.087118  1 
39.431985  48.101330 13.564196  1 
39.029065  46.896636 14.447467  1 
39.081060  45.547406 14.632297  1 
39.460950  44.239954 13.917993  1 
40.593849  43.282300 14.465895  1 
40.688697  41.926170 13.670619  1 
41.754476  40.943161 14.191534  1 
41.910490  39.660607 13.341674  1 
43.006642  38.674202 13.785655  1 
44.434623  39.195912 13.631388  1 
44.821950  40.394827 14.476843  1 
46.630915  42.365198 19.438195  2 
48.062720  43.311625 18.891118  2 
44.476278  43.334783 17.350856  2 
44.133978  44.832447 18.197855  2 
42.747955  43.258359 19.038191  2 
43.855780  43.766820 20.330499  2 
43.362353  41.524831 20.391707  2 
45.007229  41.706285 20.067909  2 
44.634004  41.358298 17.562194  2 
42.896407  41.007798 17.938997  2 
43.837903  39.347804 17.638121  2 
43.509832  38.792707 18.440272  2 
46.781374  40.053575 18.767864  2 
46.520658  38.493569 19.543852  2 
46.486610  41.055485 20.823526  2 
47.456175  39.679614 21.073516  2 
46.000217  40.262153 22.918384  2 
45.770563  38.588083 22.472030  2 
43.833183  40.910569 22.086781  2 
43.763687  39.750004 23.327978  2 
41.954567  39.251777 21.845086  2 
43.136229  37.870663 21.870484  2 
42.754526  39.840313 19.901995  2 
42.066322  38.428984 19.586386  2 
44.647520  36.846945 19.754494  2 
44.936795  38.411140 20.368115  2 
45.503563  39.323085 17.378277  2 
44.729975  37.954155 16.891981  2 
47.123495  37.100897 17.416919  2 
47.628560  38.785809 17.732133  2 
46.579416  37.914757 15.128045  2 
48.138608  38.672667 15.562368  2 
46.727738  39.625881 15.630594  2 
44.953725  46.143713 17.306308  2 
46.075870  47.058699 19.323600  2 
45.537366  48.237906 18.134446  2 
48.504082  47.560183 18.496811  2 
47.611031  48.832322 19.316931  2 
47.767272  48.892242 17.571912  2 
47.364985  46.948475 15.681270  2 
45.846501  47.844943 15.728610  2 
43.839854  44.496318 12.945792  2 
45.233488  45.427565 12.466297  2 
43.538926  45.797764 10.901614  2 
43.920520  47.313221 11.700835  2 
41.755861  47.140533 12.915377  2 
41.357700  45.657035 12.043933  2 
41.444375  46.885738 9.877868  2 
41.839506  48.377395 10.692768  2 
39.195255  46.810209 10.853916  2 
39.514742  48.296921 9.994098  2 
38.178348  48.813472 11.895260  2 
39.724104  49.557973 12.009061  2 
38.963074  48.951422 14.102854  2 
40.482890  48.272097 13.793175  2 
38.617195  47.358352 15.363061  2 
38.665275  45.267060 15.612213  2 
39.622639  44.425156 12.857355  2 
38.546851  43.628607 13.988537  2 
40.430474  43.040905 15.525739  2 
41.561011  43.796034 14.404742  2 
40.935888  42.159067 12.627127  2 
39.731757  41.400054 13.682680  2 
41.583620  40.659596 15.235519  2 
42.651815  41.532870 14.165862  2 
42.091490  39.915404 12.290130  2 
40.958189  39.118924 13.376980  2 
42.932179  37.767762 13.158516  2 
42.825541  38.324279 14.809356  2 
44.634156  39.427417 12.582159  2 
45.105778  38.369061 13.879055  2 
44.332980  41.324893 14.242843  2 
45.857251  40.667549 14.269396  2 
44.665364  40.198359 15.539312  2 
28.971728  45.857178 4.814799  1 
27.689964  45.711173 5.173366  1 
27.166286  44.461411 5.868250  1 
27.931987  43.630713 6.896579  1 
29.092422  42.935603 6.388283  1 
28.709398  42.096611 5.219272  1 
30.075254  41.535764 4.644180  1 
31.258547  42.872704 4.259596  1 
32.072514  43.662625 5.307969  1 
32.785509  43.044746 6.551428  1 
32.078342  42.103781 7.576646  1 