NumberOfAtoms 228
SpinPolarized yes
#FixSpin .true.
#TotalSpin 
NumberOfSpecies 4

 
MD.TypeOfRun  nose
MD.FinalTimeStep 10
MD.LengthTimeStep 1.0  fs
MD.InitialTemperature 300 K 
MD.TargetTemperature  300  K


%block ChemicalSpeciesLabel
1  6  C
2  7  N
3  1  H
4  8  O
%endblock ChemicalSpeciesLabel

PAO.BasisSize dzp 
 PAO.EnergyShift 0.02 Ry 
 
MeshCutoff          100 Ry
MaxSCFIterations    100  
DM.NumberPulay       3  
DM.Tolerance         1e-3
WriteDenchar	.true.

%block ProjectedDensityOfStates
-10.0 10.0 0.200 500 eV
%endblock ProjectedDensityOfStates
NetCharge 0.00

%block BandLines
1  1.000  1.000 1.000  L
20 0.00   0.00   0.00  \Gamma
25 2.00   0.000  0.00  X
30 2.00   2.00   2.00  \Gamma
%endblock BandLines


LongOutput .true.
WriteCoorXmol .true.
LatticeConstant 1 Ang
%block LatticeVectors
  37.855872 0.0 0.0
  0.0 31.887851 0.0
  0.0 0.0 27.326383
%endblock LatticeVectors


 

#UseSaveData .true.  
%block kgrid_Monkhorst_Pack
1 0 0 0.0 
 0 1 0 0.0 
 0 0 1 0.0 

%endblock kgrid_Monkhorst_Pack
WriteMDXmol .true.
AtomicCoordinatesFormat Ang
%block AtomicCoordinatesAndAtomicSpecies
6.625655  27.250387 20.095008  1 
6.788211  26.474729 18.798025  1 
6.881684  27.411415 17.593151  1 
7.028221  26.671607 16.260489  1 
8.328272  25.916097 16.073256  1 
8.315872  24.553408 16.421224  1 
9.432193  23.696983 16.376148  1 
10.656053  24.234767 15.917049  1 
10.666101  25.612098 15.550248  1 
9.532426  26.463041 15.617053  1 
9.701028  27.924673 15.255909  1 
8.949689  28.406704 14.018843  1 
11.797910  23.412540 15.840170  1 
12.965134  23.918847 15.394217  2 
14.024066  23.086659 15.321948  1 
15.340723  23.366757 14.884631  1 
16.068377  22.200956 14.985497  1 
15.232283  21.228019 15.471464  2 
15.497879  20.268160 15.643848  3 
13.977406  21.747546 15.686638  1 
12.781889  21.188126 16.166629  1 
12.685551  19.839117 16.555765  1 
11.468755  19.344586 17.023733  1 
10.348553  20.180188 17.107113  1 
9.124435  19.698664 17.586204  1 
8.055982  20.573233 17.676665  1 
6.703140  20.105272 18.180316  1 
5.843590  21.160438 18.925018  1 
5.414022  22.336871 18.049265  1 
4.569249  20.521231 19.482590  1 
8.161530  21.849584 17.253300  2 
9.328517  22.352546 16.784019  1 
10.450968  21.536573 16.708162  1 
11.677778  22.060382 16.234113  1 
6.437919  26.561460 20.924337  3 
5.788270  27.952691 20.037712  3 
7.534903  27.815830 20.323176  3 
5.934722  25.798293 18.672026  3 
7.688052  25.856476 18.876170  3 
7.703297  28.122674 17.730602  3 
5.958039  28.004167 17.544225  3 
6.879742  27.386737 15.455260  3 
6.185582  25.976282 16.140714  3 
7.370003  24.144867 16.759149  3 
11.613864  26.036822 15.210162  3 
10.764848  28.131554 15.080223  3 
9.428097  28.534532 16.124350  3 
9.290580  27.888743 13.118214  3 
9.116162  29.480881 13.883746  3 
7.870561  28.270693 14.075704  3 
15.706725  24.320886 14.533452  3 
17.101807  21.980381 14.754301  3 
13.539253  19.170883 16.504244  3 
11.406165  18.301581 17.326963  3 
9.013222  18.662523 17.889329  3 
6.873414  19.270429 18.874837  3 
6.144688  19.696559 17.329083  3 
6.425724  21.554655 19.768302  3 
4.970351  22.002815 17.106503  3 
6.258534  22.975538 17.829240  3 
4.701787  22.987605 18.565168  3 
3.969619  20.075875 18.681091  3 
3.948722  21.275207 19.981577  3 
4.801996  19.744601 20.215784  3 
4.647569  17.246534 9.802384  1 
4.992628  15.987429 9.505070  1 
4.792161  14.828239 10.472076  1 
3.617409  14.669078 11.435634  1 
3.553757  15.646154 12.498376  1 
4.842243  15.668821 13.244360  1 
4.719167  16.886656 14.250626  1 
4.314926  18.447549 13.392898  1 
2.921260  18.817918 12.839613  1 
1.564270  18.573368 13.571118  1 
1.136963  17.194862 14.165848  1 
1.670142  16.676205 15.540022  1 
3.126681  16.412884 15.684419  1 
4.222097  18.004384 15.647636  1 
5.971702  18.268474 14.990016  1 
6.730978  19.434084 14.264268  1 
8.145935  19.040686 13.786429  1 
5.754730  15.804471 8.337358  4 
5.820951  14.514426 7.695379  1 
4.738691  14.380969 6.572200  1 
4.838903  15.135851 5.238919  1 
7.237677  14.174649 7.151276  1 
8.354667  13.930307 8.076132  4 
8.396833  12.805558 8.867664  1 
7.407625  12.151467 9.163515  4 
9.824067  12.532469 9.413241  1 
10.634025  11.218255 9.145184  1 
10.186878  9.848364 9.712514  1 
11.138156  8.671952 9.344491  1 
10.734812  7.269264 9.872382  1 
9.412596  6.641922 9.414256  1 
8.046224  7.348629 9.677686  1 
7.213876  7.811141 10.897144  1 
7.163210  8.582263 12.019683  1 
8.049971  9.419234 12.956225  1 
7.812881  10.967234 13.175870  1 
8.729488  11.574507 14.303522  1 
8.508410  13.073875 14.580220  1 
9.483363  13.683266 15.614461  1 
9.343554  15.193764 15.880004  1 
9.716881  16.086470 14.697289  1 
8.856035  15.972176 13.453064  1 
4.168642  17.502657 10.722552  3 
4.889002  18.100118 9.183330  3 
5.717856  14.777153 11.055872  3 
4.691433  13.901845 9.934326  3 
3.748844  13.724080 11.980030  3 
2.648235  14.656270 10.942943  3 
2.695350  15.402954 13.114112  3 
3.305680  16.615332 12.113599  3 
5.717111  15.962493 12.659306  3 
5.052550  14.770130 13.851238  3 
5.672178  16.341436 14.789097  3 
4.875343  16.517641 15.416166  3 
5.058723  18.670462 12.635551  3 
4.389772  19.410932 14.087432  3 
2.903333  18.338627 11.886795  3 
2.964142  19.902330 12.555156  3 
0.833596  18.772400 12.771337  3 
1.376172  19.343740 14.331357  3 
1.180949  16.460914 13.358215  3 
0.057402  17.253208 14.359326  3 
1.211406  15.691249 15.755275  3 
1.532292  17.388024 16.323108  3 
3.210032  15.655164 14.880001  3 
3.514933  15.736808 16.450177  3 
3.977769  18.733364 16.461362  3 
3.292627  18.302572 14.960724  3 
6.242257  17.689759 13.952683  3 
6.694235  17.643132 15.534591  3 
6.707740  20.184675 15.012169  3 
6.344334  19.810372 13.303014  3 
8.771308  18.840553 14.648360  3 
8.572620  19.844007 13.182841  3 
8.155148  18.194075 13.097582  3 
5.600883  13.730891 8.407913  3 
3.757653  14.617548 7.000000  3 
4.714118  13.319302 6.296909  3 
4.978939  16.215633 5.330909  3 
3.895177  14.990542 4.688189  3 
5.625969  14.728615 4.594133  3 
7.572655  14.994428 6.505769  3 
7.160400  13.279389 6.525252  3 
9.802757  12.739763 10.488932  3 
10.451182  13.327143 8.980993  3 
11.629321  11.400046 9.576900  3 
10.784389  11.109638 8.066028  3 
9.204187  9.643766 9.308953  3 
10.113786  9.889055 10.802666  3 
12.139056  8.884599 9.754614  3 
11.283460  8.620895 8.256732  3 
10.767539  7.249193 10.963458  3 
11.536085  6.577831 9.545614  3 
9.378887  5.593030 9.755017  3 
9.492348  6.525700 8.314931  3 
7.355267  6.634698 9.182139  3 
8.004989  8.185521 8.982052  3 
6.199636  7.421369 10.695838  3 
6.151492  8.581740 12.453425  3 
9.101263  9.239670 12.737275  3 
7.863315  8.983677 13.951085  3 
6.767059  11.173941 13.443753  3 
8.009051  11.498883 12.236759  3 
9.775862  11.445452 13.999110  3 
8.584361  11.047537 15.248995  3 
7.480450  13.292603 14.888379  3 
8.649953  13.515807 13.611564  3 
10.523192  13.486134 15.325805  3 
9.317764  13.172939 16.570331  3 
10.023727  15.464852 16.707263  3 
8.339420  15.433650 16.250649  3 
10.760013  15.917180 14.418891  3 
9.674797  17.120207 15.050966  3 
8.909863  15.040513 12.916428  3 
9.229614  16.653505 12.687891  3 
7.804919  16.162133 13.678960  3 
28.958784  27.000289 6.055569  1 
27.773510  26.610031 5.155819  1 
27.908197  27.341915 3.816526  1 
27.729491  25.080029 4.966799  1 
27.592713  24.244789 6.166708  2 
26.628073  24.091979 7.110199  1 
26.695436  23.083232 7.819718  4 
25.437314  25.063718 7.225816  1 
25.128747  25.384462 8.714382  1 
26.317401  26.099784 9.370853  1 
23.876916  26.257777 8.891067  1 
24.317211  24.379781 6.581289  2 
23.986538  24.369164 5.255481  1 
23.256397  23.470150 4.846285  4 
24.597431  25.418961 4.296719  1 
23.500830  25.938832 3.324461  1 
22.377063  26.660029 4.076502  1 
24.069355  26.886369 2.260237  1 
25.629958  24.705825 3.545014  2 
26.932714  24.446984 3.806174  1 
27.469389  23.577022 3.108899  4 
28.991867  28.084345 6.208692  3 
29.913274  26.698880 5.608601  3 
28.882569  26.529879 7.041052  3 
26.876456  26.993781 5.636393  3 
28.780879  26.992418 3.255239  3 
28.016934  28.420727 3.973462  3 
27.020988  27.193866 3.195169  3 
28.763813  24.847381 4.659497  3 
28.212375  23.439303 6.177086  3 
25.639029  25.993881 6.715911  3 
24.954041  24.449840 9.262996  3 
26.498867  27.076112 8.908056  3 
27.235056  25.509836 9.291318  3 
26.127827  26.262638 10.437530  3 
23.912324  27.152549 8.260264  3 
23.781605  26.591303 9.931994  3 
22.965685  25.702005 8.648599  3 
23.973377  23.547549 7.053426  3 
25.033757  26.258665 4.828608  3 
23.052922  25.087316 2.793888  3 
22.754176  27.545838 4.597954  3 
21.899628  26.006439 4.812524  3 
21.596674  26.985110 3.379119  3 
24.588784  27.734362 2.718131  3 
23.266246  27.286498 1.630430  3 
24.770864  26.369234 1.597954  3 
25.276979  24.048589 2.854749  3 
 %endblock AtomicCoordinatesAndAtomicSpecies


