NumberOfAtoms 1927
SpinPolarized yes
#FixSpin .true.
#TotalSpin
NumberOfSpecies 4


MD.TypeOfRun  nose
MD.FinalTimeStep 50
MD.LengthTimeStep 0.5  fs
MD.InitialTemperature 300 K
MD.TargetTemperature  300  K


%block ChemicalSpeciesLabel
1 6 C
2 8 O
3 7 N
4 1 H
%endblock ChemicalSpeciesLabel
PAO.BasisSize dzp 
 PAO.EnergyShift 0.02 Ry 
MeshCutoff          100 Ry
MaxSCFIterations    100
DM.NumberPulay       3
DM.Tolerance         1e-3
WriteDenchar	.true.
%block ProjectedDensityOfStates
-10.0 10.0 0.200 500 eV
%endblock ProjectedDensityOfStates
NetCharge 0.00

%block BandLines
1  1.000  1.000 1.000  L
20 0.00   0.00   0.00  \Gamma
25 2.00   0.000  0.00  X
30 2.00   2.00   2.00  \Gamma
%endblock BandLines


LongOutput .true.
WriteCoorXmol .true.
LatticeConstant 1 Ang
%block LatticeVectors
  30 0.0 0.0
  0.0 30 0.0
0.0 0.0 30
%endblock LatticeVectors




#UseSaveData .true.
%block kgrid_Monkhorst_Pack
1 0 0 0.0 
 0 1 0 0.0 
 0 0 1 0.0

%endblock kgrid_Monkhorst_Pack
WriteMDXmol .true.
AtomicCoordinatesFormat Ang
%block AtomicCoordinatesAndAtomicSpecies
48.007719  35.735028 11.948965  1
48.351260  34.340585 12.340754  1
47.509362  33.396482 12.792169  1
46.030519  33.623631 13.019937  1
47.992948  32.024700 13.165758  1
48.918474  31.280484 12.191946  1
49.164531  29.809934 12.583126  1
47.995671  28.797838 12.391264  1
48.439911  27.430868 12.919962  1
46.659989  29.222749 13.030622  1
45.522012  28.184532 13.007090  1
44.290282  28.796479 13.690814  1
43.037115  27.900779 13.724520  1
43.278093  26.627399 14.540687  1
41.748397  28.638130 14.187768  1
41.699452  29.201780 15.624378  1
42.637780  30.381156 15.885056  1
42.739206  30.862073 17.339835  1
43.123202  29.728506 18.295231  1
43.803976  31.966094 17.412624  1
48.612887  36.035084 11.089313  4
48.222255  36.410549 12.781269  4
46.961479  35.841976 11.663431  4
49.411929  34.089282 12.247312  4
45.793618  34.669495 13.231204  4
45.668254  33.050134 13.879480  4
45.460631  33.307405 12.137023  4
47.082209  31.462296 13.281914  4
48.434917  32.041842 14.169677  4
49.894793  31.784606 12.187337  4
48.539448  31.329132 11.164839  4
49.538873  29.772632 13.613588  4
49.998093  29.452808 11.957811  4
47.829936  28.698001 11.310918  4
48.535920  27.438706 14.008767  4
49.407482  27.139419 12.491949  4
47.721871  26.653571 12.642674  4
46.260055  30.047688 12.431897  4
46.824405  29.543282 14.058958  4
45.828953  27.290440 13.562298  4
45.290982  27.891316 11.977861  4
44.047521  29.759076 13.235918  4
44.633666  28.954761 14.711639  4
42.843435  27.593911 12.684684  4
42.518588  26.473716 15.312785  4
44.251300  26.629393 15.040082  4
43.247839  25.752612 13.881733  4
40.921124  27.919666 14.100146  4
41.511288  29.440263 13.477178  4
41.878452  28.389860 16.334132  4
40.673129  29.546666 15.811642  4
42.370739  31.211291 15.221928  4
43.654662  30.120938 15.631885  4
41.776449  31.286044 17.649024  4
42.234519  29.174129 18.613865  4
43.612763  30.112257 19.197903  4
43.812858  29.016740 17.825893  4
44.807900  31.560683 17.206542  4
43.824713  32.415880 18.406137  4
43.608178  32.756318 16.683597  4
32.509723  44.722240 9.785559  1
33.208105  45.449258 10.880867  1
33.426042  45.011551 12.131792  1
32.941965  43.676510 12.655038  1
34.137882  45.857200 13.148341  1
35.453080  46.540472 12.745652  1
36.192629  47.192705 13.930449  1
36.887861  46.255333 14.962614  1
37.479311  47.114774 16.083786  1
35.986513  45.147973 15.541149  1
36.580522  44.299767 16.681824  1
35.531747  43.265198 17.116400  1
35.974752  42.300839 18.233361  1
36.271195  43.048533 19.536730  1
34.994922  41.115840 18.467436  1
33.563226  41.429955 18.952741  1
32.678957  42.143592 17.928957  1
31.306852  42.619084 18.428142  1
31.423259  43.516355 19.663684  1
30.624298  43.402705 17.297675  1
32.998632  44.937027 8.831569  4
31.470818  45.057934 9.730150  4
32.528372  43.641536 9.924550  4
33.564367  46.447623 10.610226  4
32.053297  43.316658 12.130289  4
32.665465  43.740891 13.712560  4
33.734636  42.923909 12.557196  4
34.333204  45.168672 13.952713  4
33.445690  46.591928 13.577908  4
35.223467  47.337966 12.025486  4
36.124550  45.842912 12.232318  4
35.510510  47.884763 14.439513  4
36.981953  47.827820 13.498036  4
37.722389  45.766943 14.443365  4
36.693217  47.560176 16.698969  4
38.095622  47.925217 15.674306  4
38.127701  46.517820 16.731782  4
35.818205  44.415632 14.744725  4
35.040090  45.573531 15.873463  4
36.816975  44.945940 17.535299  4
37.501670  43.806956 16.354276  4
35.183096  42.697440 16.251214  4
34.720651  43.886093 17.492782  4
36.917018  41.841745 17.895269  4
35.729564  42.633039 20.391483  4
36.015135  44.110299 19.476580  4
37.339631  42.980075 19.769423  4
35.453416  40.468693 19.228509  4
34.941506  40.501477 17.559536  4
33.617415  41.992411 19.888536  4
33.079169  40.475291 19.201050  4
32.568734  41.511595 17.040923  4
33.152497  43.050782 17.584539  4
30.687648  41.747250 18.670509  4
31.468412  42.913207 20.576259  4
30.561529  44.187746 19.755371  4
32.323508  44.141560 19.629271  4
31.160556  44.342715 17.089108  4
29.599610  43.658199 17.570699  4
30.596952  42.822783 16.371817  4
26.640947  36.208021 37.523700  1
27.605740  37.133009 36.868291  1
28.838477  37.451806 37.295640  1
29.447043  36.931975 38.580114  1
29.708539  38.414729 36.540008  1
29.863017  38.231875 35.022950  1
30.944750  39.138569 34.403400  1
32.437206  38.795463 34.690169  1
33.318856  39.870612 34.048121  1
32.786535  38.621238 36.180468  1
34.277630  38.441755 36.523773  1
34.411985  38.290016 38.046285  1
35.844514  38.063401 38.566238  1
36.747922  39.263114 38.265837  1
35.913351  37.661024 40.067048  1
35.413984  38.670707 41.123038  1
33.904760  38.918667 41.112908  1
33.391865  40.035135 42.033989  1
34.094913  41.369307 41.767687  1
31.883793  40.203448 41.798863  1
26.091941  35.648805 36.761379  4
25.926956  36.786303 38.116060  4
27.133371  35.480867 38.168956  4
27.240593  37.593077 35.945302  4
28.692996  36.673047 39.327748  4
30.092322  37.683580 39.046649  4
30.056206  36.042469 38.375155  4
30.672050  38.298982 37.006360  4
29.414965  39.446666 36.768929  4
28.908270  38.488660 34.543494  4
30.068041  37.186542 34.765616  4
30.732659  40.181076 34.670933  4
30.812263  39.085922 33.311128  4
32.652088  37.844944 34.185270  4
33.218720  40.827564 34.566765  4
33.050783  40.021213 32.994657  4
34.371913  39.575204 34.069710  4
32.337023  37.679637 36.512540  4
32.389617  39.456719 36.756381  4
34.837432  39.328601 36.204406  4
34.688083  37.567988 36.007320  4
33.756017  37.493562 38.403806  4
34.053456  39.248435 38.417688  4
36.246404  37.201204 38.011226  4
37.261977  39.634970 39.156945  4
36.196097  40.104145 37.836085  4
37.521544  38.974391 37.545743  4
36.969625  37.459484 40.294902  4
35.398272  36.702783 40.212119  4
35.969008  39.606259 41.014883  4
35.678505  38.274641 42.113246  4
33.380789  37.978544 41.317353  4
33.577017  39.227995 40.131706  4
33.550883  39.744031 43.079083  4
35.032010  41.431232 42.330388  4
33.472335  42.219146 42.070874  4
34.331919  41.499441 40.704951  4
31.682869  40.593335 40.787770  4
31.458441  40.906112 42.516598  4
31.356827  39.251330 41.899104  4
15.953664  29.183434 0.141121  1
16.273877  28.845430 1.026121  1
15.870858  29.196872 1.871138  1
15.147625  29.886318 1.831166  1
14.744605  30.237760 2.676194  1
14.021372  30.927206 2.636221  1
13.618353  31.278648 3.481239  1
12.895119  31.968094 3.441267  1
12.492100  32.319536 4.286294  1
11.768866  33.008982 4.246322  1
11.365847  33.360424 5.091340  1
10.642614  34.049870 5.051368  1
10.239594  34.401312 5.896395  1
9.516361  35.090758 5.856423  1
9.113342  35.442200 6.701441  1
8.390108  36.131646 6.661469  1
7.987089  36.483088 7.506496  1
7.263855  37.172534 7.466524  1
6.860836  37.523976 8.311542  1
6.137603  38.213422 8.271570  1
5.734583  38.564864 9.116597  1
5.011350  39.254310 9.076625  1
36.185266  20.825988 14.239729  1
36.897861  21.214783 13.655730  1
37.799419  20.784249 13.613020  1
37.988392  19.964920 14.154304  1
38.889959  19.534386 14.111589  1
39.078931  18.715056 14.652874  1
39.980490  18.284522 14.610163  1
40.169462  17.465193 15.151447  1
41.071029  17.034659 15.108733  1
41.260002  16.215329 15.650017  1
42.161560  15.784795 15.607306  1
42.350532  14.965466 16.148590  1
43.252100  14.534932 16.105876  1
43.441072  13.715602 16.647160  1
44.342630  13.285068 16.604449  1
44.531602  12.465739 17.145733  1
45.433170  12.035205 17.103019  1
45.622142  11.215875 17.644303  1
46.523700  10.785341 17.601592  1
46.712673  9.966012 18.142876  1
47.614240  9.535477 18.100162  1
47.803212  8.716148 18.641446  1
32.103891  11.537767 7.455738  1
32.027375  10.866620 8.193108  1
31.294635  10.947512 8.868784  1
30.638406  11.699548 8.807099  1
29.905661  11.780437 9.482783  1
29.249431  12.532473 9.421097  1
28.516691  12.613365 10.096774  1
27.860462  13.365401 10.035088  1
27.127717  13.446290 10.710772  1
26.471487  14.198326 10.649087  1
25.738747  14.279219 11.324763  1
25.082518  15.031255 11.263077  1
24.349773  15.112143 11.938762  1
23.693544  15.864179 11.877076  1
22.960803  15.945072 12.552752  1
22.304574  16.697108 12.491067  1
21.571829  16.777997 13.166751  1
20.915600  17.530033 13.105065  1
20.182859  17.610925 13.780742  1
19.526630  18.362961 13.719056  1
18.793885  18.443850 14.394740  1
18.137656  19.195886 14.333055  1
13.497887  18.819068 15.163993  1
12.796518  18.305465 15.658262  1
12.626448  17.346383 15.431927  1
13.157741  16.900894 14.711325  1
12.987666  15.941803 14.484992  1
13.518960  15.496315 13.764390  1
13.348889  14.537232 13.538056  1
13.880183  14.091744 12.817454  1
13.710108  13.132653 12.591121  1
14.241401  12.687165 11.870519  1
14.071331  11.728082 11.644184  1
14.602625  11.282594 10.923582  1
14.432549  10.323503 10.697249  1
14.963843  9.878014 9.976647  1
14.793773  8.918932 9.750312  1
15.325066  8.473443 9.029710  1
15.154991  7.514352 8.803377  1
15.686284  7.068864 8.082775  1
15.516214  6.109781 7.856441  1
16.047508  5.664293 7.135839  1
15.877432  4.705202 6.909506  1
16.408726  4.259713 6.188904  1
27.494837  29.952185 35.167870  1
27.107186  30.810121 34.830706  1
26.558872  30.816525 33.994463  1
26.398203  29.964997 33.495379  1
25.849884  29.971405 32.659129  1
25.689215  29.119877 32.160045  1
25.140901  29.126280 31.323802  1
24.980232  28.274752 30.824718  1
24.431913  28.281160 29.988469  1
24.271244  27.429632 29.489384  1
23.722930  27.436036 28.653142  1
23.562261  26.584508 28.154057  1
23.013942  26.590916 27.317808  1
22.853273  25.739388 26.818723  1
22.304959  25.745791 25.982481  1
22.144290  24.894263 25.483396  1
21.595971  24.900671 24.647147  1
21.435302  24.049143 24.148063  1
20.886988  24.055547 23.311820  1
20.726319  23.204018 22.812736  1
20.178000  23.210427 21.976486  1
20.017331  22.358899 21.477402  1
26.188480  17.652202 19.663141  1
25.775782  16.983627 19.044517  1
25.284301  17.292562 18.230271  1
25.205514  18.270070 18.034640  1
24.714028  18.579003 17.220386  1
24.635241  19.556511 17.024755  1
24.143761  19.865445 16.210509  1
24.064973  20.842953 16.014878  1
23.573488  21.151886 15.200624  1
23.494701  22.129394 15.004994  1
23.003220  22.438329 14.190747  1
22.924433  23.415836 13.995117  1
22.432947  23.724769 13.180862  1
22.354160  24.702277 12.985232  1
21.862679  25.011212 12.170986  1
21.783892  25.988719 11.975355  1
21.292406  26.297652 11.161101  1
21.213619  27.275160 10.965470  1
20.722139  27.584095 10.151224  1
20.643352  28.561602 9.955594  1
20.151866  28.870535 9.141339  1
20.073079  29.848043 8.945709  1
7.683935  14.336959 20.005424  1
7.061607  14.308998 19.223162  1
7.143072  13.578345 18.545298  1
7.846862  12.875649 18.649687  1
7.928325  12.144991 17.971814  1
8.632115  11.442295 18.076204  1
8.713580  10.711642 17.398339  1
9.417370  10.008945 17.502729  1
9.498833  9.278288 16.824856  1
10.202623  8.575591 16.929245  1
10.284088  7.844938 16.251381  1
10.987878  7.142242 16.355770  1
11.069341  6.411584 15.677897  1
11.773131  5.708888 15.782287  1
11.854596  4.978235 15.104422  1
12.558386  4.275539 15.208812  1
12.639849  3.544881 14.530939  1
13.343639  2.842185 14.635328  1
13.425104  2.111532 13.957464  1
14.128894  1.408835 14.061853  1
14.210357  0.678178 13.383980  1
14.914147  -0.024519 13.488370  1
4.733733  28.484393 10.356737  1
4.873310  28.727146 9.396742  1
4.639881  28.073644 8.676717  1
4.266871  27.177381 8.916682  1
4.033438  26.523871 8.196654  1
3.660432  25.627616 8.436622  1
3.426999  24.974106 7.716594  1
3.053993  24.077852 7.956562  1
2.820560  23.424341 7.236534  1
2.447553  22.528087 7.476502  1
2.214121  21.874576 6.756473  1
1.841114  20.978322 6.996442  1
1.607681  20.324812 6.276413  1
1.234675  19.428557 6.516382  1
1.001242  18.775047 5.796353  1
0.628235  17.878792 6.036322  1
0.394803  17.225282 5.316293  1
29.450930  26.800462 0.311917  1
29.876082  26.171882 0.963173  1
29.305519  25.575509 1.527786  1
28.309796  25.607712 1.441147  1
27.739224  25.011336 2.005763  1
26.743510  25.043543 1.919121  1
26.172939  24.447167 2.483737  1
25.177225  24.479373 2.397095  1
24.606653  23.882997 2.961711  1
23.610939  23.915204 2.875069  1
23.040367  23.318827 3.439685  1
22.044653  23.351034 3.353043  1
21.474082  22.754658 3.917659  1
20.478368  22.786864 3.831017  1
19.907796  22.190488 4.395633  1
18.912082  22.222695 4.308991  1
18.341511  21.626319 4.873607  1
11.226513  27.648467 14.700329  1
11.928951  28.358024 14.756102  1
12.888425  28.125333 14.597185  1
13.145469  27.183078 14.382493  1
14.104950  26.950380 14.223575  1
14.361987  26.008132 14.008885  1
15.321468  25.775434 13.849966  1
15.578505  24.833186 13.635277  1
16.537987  24.600488 13.476358  1
16.795023  23.658240 13.261668  1
17.754505  23.425542 13.102750  1
18.011541  22.483294 12.888060  1
18.971023  22.250597 12.729141  1
19.228059  21.308349 12.514452  1
20.187541  21.075651 12.355533  1
20.444577  20.133403 12.140844  1
21.404059  19.900705 11.981925  1
5.897035  31.077709 21.293638  1
6.215562  30.196624 20.944023  1
7.174990  29.934646 21.048218  1
7.815900  30.553755 21.502030  1
8.775337  30.291779 21.606228  1
9.416239  30.910886 22.060038  1
10.375676  30.648910 22.164235  1
11.016577  31.268017 22.618045  1
11.976014  31.006041 22.722242  1
12.616915  31.625148 23.176052  1
13.576352  31.363172 23.280250  1
14.217254  31.982279 23.734059  1
15.176691  31.720303 23.838257  1
15.817592  32.339410 24.292066  1
16.777029  32.077434 24.396264  1
17.417930  32.696541 24.850074  1
18.377367  32.434565 24.954271  1
9.615573  16.546492 18.214758  1
10.583713  16.741452 18.057609  1
11.272908  16.045129 18.257946  1
10.993966  15.153837 18.615434  1
11.683164  14.457505 18.815774  1
11.404220  13.566223 19.173260  1
12.093417  12.869891 19.373600  1
11.814473  11.978608 19.731085  1
12.503671  11.282276 19.931425  1
12.224726  10.390993 20.288910  1
12.913924  9.694661 20.489250  1
12.634980  8.803379 20.846735  1
13.324177  8.107047 21.047075  1
13.045233  7.215764 21.404561  1
13.734431  6.519432 21.604901  1
13.455486  5.628149 21.962386  1
14.144684  4.931817 22.162726  1
0.013707  35.920842 9.462675  1
1.002802  35.773564 9.462475  1
1.624895  36.556501 9.463640  1
1.257895  37.486725 9.465004  1
1.879990  38.269671 9.466169  1
1.512988  39.199885 9.467533  1
2.135083  39.982831 9.468698  1
1.768081  40.913045 9.470062  1
2.390176  41.695992 9.471227  1
2.023174  42.626206 9.472591  1
2.645268  43.409152 9.473756  1
2.278267  44.339366 9.475120  1
2.900361  45.122312 9.476285  1
2.533360  46.052526 9.477649  1
3.155454  46.835473 9.478814  1
2.788453  47.765687 9.480178  1
3.410547  48.548633 9.481343  1
11.785759  38.181294 23.083106  1
11.564350  39.141197 22.911167  1
12.210453  39.858049 23.173206  1
13.077975  39.615000 23.607188  1
13.724088  40.331855 23.869230  1
14.591601  40.088803 24.303208  1
15.237714  40.805658 24.565251  1
16.105227  40.562606 24.999229  1
16.751339  41.279461 25.261271  1
17.618853  41.036409 25.695249  1
18.264965  41.753264 25.957292  1
19.132479  41.510212 26.391270  1
19.778591  42.227067 26.653312  1
20.646105  41.984015 27.087290  1
21.292217  42.700870 27.349333  1
22.159731  42.457818 27.783311  1
22.805843  43.174673 28.045354  1
17.548882  26.051989 36.219089  1
18.476335  25.820559 36.512808  1
18.704332  25.809406 37.486401  1
18.004872  26.029683 38.166285  1
18.232866  26.018531 39.139888  1
17.533409  26.238807 39.819763  1
17.761403  26.227654 40.793365  1
17.061946  26.447930 41.473240  1
17.289940  26.436778 42.446843  1
16.590483  26.657054 43.126717  1
16.818477  26.645901 44.100320  1
16.119020  26.866177 44.780195  1
16.347014  26.855025 45.753797  1
15.647557  27.075301 46.433672  1
15.875551  27.064149 47.407275  1
15.176094  27.284424 48.087149  1
15.404088  27.273272 49.060752  1
5.718848  18.766379 39.556727  1
6.676162  18.986783 39.369719  1
6.908000  19.813726 38.857462  1
6.182522  20.420274 38.532209  1
6.414358  21.247225 38.019948  1
5.688882  21.853764 37.694700  1
5.920718  22.680716 37.182438  1
5.195242  23.287255 36.857190  1
5.427078  24.114206 36.344929  1
4.701603  24.720745 36.019681  1
4.933438  25.547697 35.507419  1
4.207963  26.154236 35.182171  1
4.439799  26.981187 34.669910  1
3.714323  27.587726 34.344662  1
3.946159  28.414677 33.832400  1
3.220684  29.021217 33.507152  1
3.452519  29.848168 32.994891  1
5.134759  29.348844 44.042727  1
5.202384  28.837215 44.899268  1
6.079710  28.771807 45.374676  1
6.889420  29.218029 44.993542  1
7.766755  29.152623 45.468950  1
8.576456  29.598844 45.087816  1
9.453791  29.533437 45.563223  1
10.263492  29.979658 45.182089  1
11.140827  29.914252 45.657497  1
11.950528  30.360472 45.276363  1
12.827863  30.295066 45.751771  1
13.637564  30.741286 45.370637  1
14.514899  30.675880 45.846044  1
15.324599  31.122101 45.464910  1
16.201935  31.056694 45.940318  1
17.011635  31.502915 45.559184  1
17.888971  31.437509 46.034592  1
23.746521  43.393953 46.354326  1
23.708425  43.145299 47.322169  1
23.030411  42.483521 47.642072  1
22.390486  42.070391 46.994131  1
21.712465  41.408607 47.314032  1
21.072548  40.995483 46.666093  1
20.394527  40.333699 46.985995  1
19.754610  39.920575 46.338055  1
19.076589  39.258791 46.657957  1
18.436672  38.845667 46.010017  1
17.758651  38.183883 46.329919  1
17.118734  37.770759 45.681980  1
16.440713  37.108975 46.001881  1
15.800796  36.695851 45.353942  1
15.122774  36.034067 45.673843  1
14.482857  35.620943 45.025904  1
13.804836  34.959159 45.345806  1
29.883427  45.124683 37.665557  1
30.079445  46.062624 37.379474  1
29.459405  46.533991 36.752295  1
28.643338  46.067416 36.411192  1
28.023290  46.538783 35.784007  1
27.207231  46.072208 35.442909  1
26.587183  46.543575 34.815724  1
25.771124  46.077001 34.474627  1
25.151076  46.548367 33.847442  1
24.335017  46.081793 33.506344  1
23.714969  46.553160 32.879159  1
22.898910  46.086585 32.538062  1
22.278862  46.557952 31.910877  1
21.462803  46.091377 31.569779  1
20.842755  46.562744 30.942594  1
20.026696  46.096169 30.601497  1
19.406648  46.567536 29.974312  1
24.376556  28.396934 39.744424  1
23.383151  28.404708 39.630034  1
22.958920  29.041792 38.986494  1
23.528096  29.671109 38.457338  1
23.103867  30.308200 37.813792  1
23.673042  30.937511 37.284643  1
23.248812  31.574602 36.641096  1
23.817987  32.203912 36.111947  1
23.393757  32.841004 35.468401  1
23.962932  33.470314 34.939251  1
23.538703  34.107405 34.295705  1
24.107878  34.736715 33.766556  1
23.683648  35.373807 33.123009  1
24.252823  36.003117 32.593860  1
23.828594  36.640208 31.950314  1
24.397769  37.269519 31.421164  1
23.973539  37.906610 30.777618  1
17.434374  20.509085 39.432014  1
18.160662  20.555933 40.117806  1
18.839949  19.824495 40.177457  1
18.792952  19.046201 39.551312  1
19.472243  18.314754 39.610959  1
19.425243  17.536469 38.984818  1
20.104534  16.805022 39.044466  1
20.057533  16.026737 38.418324  1
20.736824  15.295290 38.477972  1
20.689824  14.517005 37.851830  1
21.369115  13.785558 37.911478  1
21.322114  13.007273 37.285336  1
22.001405  12.275826 37.344984  1
21.954404  11.497541 36.718842  1
22.633695  10.766094 36.778490  1
22.586695  9.987809 36.152348  1
23.265986  9.256362 36.211996  1
0.994563  1.092657 4.974382  1
2.075882  1.596206 5.890084  1
3.214662  2.184395 5.333720  1
4.198852  2.653212 6.181557  1
4.128976  2.584594 7.525634  3
3.035853  2.026250 8.072198  1
2.948964  1.973451 9.457134  1
1.843630  1.420870 10.107726  1
0.801557  0.891518 9.360911  1
0.865565  0.926758 7.968446  1
1.972451  1.502710 7.300741  1
1.230183  1.294928 3.923937  4
0.045735  1.591963 5.195798  4
0.875350  0.010021 5.084123  4
3.336869  2.283122 4.260352  4
5.099207  3.117888 5.789938  4
3.765175  2.382970 10.047691  4
1.803890  1.408287 11.193651  4
-0.061858  0.456086 9.857000  4
0.036984  0.503808 7.406638  4
1.337066  45.623824 0.894325  1
1.601383  46.236410 2.232645  1
0.682684  47.107705 2.729933  3
0.885912  47.681591 3.935711  1
1.987757  47.454864 4.743540  1
2.949909  46.560510 4.254148  1
4.195763  46.064837 4.756472  1
4.935812  46.284140 5.936870  1
6.154052  45.619120 6.119292  1
6.638691  44.746254 5.148113  1
5.924289  44.511470 3.969967  1
4.708513  45.185322 3.804651  1
3.810165  45.148511 2.765449  3
3.926079  44.589909 1.932985  4
2.734730  45.971448 3.009393  1
0.389883  45.981673 0.479158  4
1.284029  44.534452 0.983379  4
2.138861  45.884420 0.196667  4
0.101367  48.363194 4.253399  4
2.093673  47.946406 5.702246  4
4.566635  46.962644 6.700037  4
6.726104  45.786855 7.028557  4
7.587400  44.238733 5.307957  4
6.305548  43.830998 3.215668  4
40.059407  6.673328 0.882924  1
41.266697  7.483116 1.247377  1
42.544408  6.979146 1.061656  1
43.647218  7.812063 1.276044  1
44.945833  7.333753 1.028724  1
46.060520  8.180663 1.134916  1
47.360317  7.767936 0.828403  1
48.451045  8.568908 0.876168  3
48.243908  9.842607 1.260721  1
47.004930  10.350927 1.613995  1
45.885299  9.510510 1.545880  1
44.589222  9.970770 1.847561  1
43.446109  9.142063 1.702167  1
42.109421  9.547135 1.925077  1
41.724161  10.932510 2.354529  1
41.042780  8.737909 1.687639  3
40.323328  5.645595 0.614844  4
39.563483  7.132491 0.021062  4
39.356885  6.640823 1.720499  4
42.678871  5.960745 0.709972  4
45.089802  6.304945 0.710493  4
47.566119  6.750817 0.506331  4
49.129153  10.472751 1.274535  4
46.915091  11.389771 1.915373  4
44.476817  11.000871 2.169342  4
42.542603  11.498960 2.802103  4
40.931978  10.876770 3.109698  4
41.341645  11.489775 1.493056  4
3.067804  46.224148 41.905186  1
4.340249  45.432262 41.892199  1
4.327856  44.045492 41.853325  1
5.539592  43.315630 41.841596  1
5.618592  41.891035 41.801200  1
4.474658  41.110756 41.770019  2
6.834419  41.179261 41.789341  1
6.847122  39.825567 41.749401  3
8.028057  39.179629 41.738831  1
9.247599  39.819360 41.766906  1
9.262283  41.213238 41.808524  1
10.591812  41.920214 41.839319  1
8.029861  41.918889 41.820125  1
7.959592  43.328710 41.860760  1
6.743384  44.049579 41.871380  1
6.661575  45.463260 41.909599  1
7.854309  46.378627 41.943014  1
5.484222  46.137833 41.920208  3
2.185092  45.578223 41.876251  4
3.034594  46.886689 41.034703  4
3.017733  46.830544 42.814891  4
3.363170  43.552623 41.832411  4
3.677551  41.650994 41.781968  4
7.961197  38.096221 41.705948  4
10.162901  39.238064 41.756273  4
11.426937  41.212267 41.824502  4
10.684345  42.516208 42.753180  4
10.697602  42.569247 40.963823  4
8.895321  43.876025 41.884550  4
8.819852  45.873791 41.925506  4
7.820472  46.986162 42.853415  4
7.822548  47.047813 41.076765  4
36.570993  46.773603 43.168716  1
36.280403  45.347737 43.667903  1
34.922599  44.899046 43.117861  1
37.412509  44.392241 43.239029  1
38.773815  44.691420 43.701044  3
39.369993  44.748267 44.919812  1
40.604845  44.730945 44.938997  2
38.556939  44.721361 46.228922  1
39.131633  45.734727 47.256898  1
39.017736  47.169283 46.723405  1
38.429279  45.665615 48.621779  1
38.657344  43.346859 46.717268  3
37.876319  42.275658 46.385983  1
38.316687  41.148569 46.596984  2
36.515199  42.497473 45.684099  1
35.449164  41.547553 46.299980  1
35.212066  41.852838 47.782925  1
34.107201  41.622473 45.560291  1
36.739086  42.149434 44.281074  3
37.198056  42.863677 43.226759  1
37.543686  42.213189 42.232550  2
35.780075  47.464534 43.479813  4
36.629938  46.807446 42.074614  4
37.516403  47.151461 43.570831  4
36.178183  45.409627 44.748940  4
34.948567  44.788115 42.028923  4
34.143823  45.628946 43.364930  4
34.617975  43.942736 43.551241  4
37.502089  44.597815 42.158244  4
39.481466  44.595239 42.977942  4
37.521356  44.971264 46.052823  4
40.195200  45.522571 47.426696  4
37.970260  47.464783 46.597703  4
39.520572  47.280105 45.758351  4
39.486401  47.876512 47.416542  4
37.340255  45.729253 48.522985  4
38.751344  46.494079 49.265032  4
38.673057  44.737922 49.149010  4
39.580818  43.049457 47.021392  4
36.171799  43.524054 45.765320  4
35.802061  40.509649 46.226307  4
34.820700  42.865995 47.921242  4
36.132443  41.758333 48.366728  4
34.486772  41.149515 48.207560  4
33.720608  42.646507 45.538662  4
33.358143  40.992478 46.054015  4
34.198409  41.266588 44.529180  4
36.848963  41.155168 44.101127  4
18.126544  15.236810 28.923200  1
19.386227  15.069716 29.790381  1
19.865911  13.618052 29.689996  1
20.477620  16.062494 29.341132  1
20.163222  17.495914 29.391894  3
19.871687  18.367446 30.391642  1
19.956401  19.570722 30.126169  2
19.559262  17.892371 31.824208  1
18.378008  18.700494 32.428771  1
17.093872  18.466726 31.621376  1
18.100722  18.346128 33.897959  1
20.794204  18.102406 32.578278  3
21.864761  17.261052 32.693394  1
22.940451  17.735363 33.049337  2
21.725477  15.771995 32.296153  1
22.450723  14.881774 33.344776  1
21.809989  15.008671 34.731101  1
22.463924  13.401738 32.941120  1
22.389274  15.651315 30.998253  3
21.955435  15.846170 29.730897  1
22.829777  15.940791 28.860483  2
17.338747  14.546065 29.242519  4
18.340359  15.031476 27.867832  4
17.724605  16.252388 28.996128  4
19.079622  15.230229 30.821472  4
20.217547  13.381454 28.680472  4
19.055137  12.923855 29.937027  4
20.682433  13.423132 30.390312  4
20.523132  15.890680 28.251733  4
20.458962  18.008938 28.565914  4
19.294731  16.845654 31.841529  4
18.608840  19.772993 32.390300  4
16.773064  17.420718 31.678606  4
17.229999  18.723542 30.566875  4
16.278823  19.090493 32.004610  4
17.997152  17.265458 34.043597  4
17.170216  18.816019 34.240326  4
18.900552  18.706197 34.552662  4
21.069944  19.070869 32.718962  4
20.688280  15.461631 32.216866  4
23.497815  15.203132 33.431586  4
20.770359  14.665406 34.720023  4
21.825891  16.041962 35.090139  4
22.357676  14.404147 35.462961  4
21.449556  13.024743 32.775291  4
22.923496  12.790982 33.726942  4
23.044902  13.241522 32.027360  4
23.403338  15.711397 31.031205  4
20.723081  36.302335 46.279977  1
22.160451  35.757719 46.343880  1
23.082392  36.858600 46.878284  1
22.212289  34.493579 47.225829  1
21.384053  33.347416 46.830291  3
21.364230  32.518724 45.754683  1
20.733343  31.463602 45.873952  2
22.178818  32.814901 44.480212  1
21.348867  32.492582 43.206944  1
20.107916  33.392261 43.128476  1
22.154616  32.660168 41.909384  1
23.366053  31.966823 44.575373  3
24.545288  32.236087 45.211081  1
25.277507  31.293254 45.500383  2
24.888113  33.687239 45.624746  1
26.384009  33.978712 45.315841  1
26.677003  33.889321 43.814273  1
26.824194  35.358075 45.823003  1
24.658691  33.745361 47.068257  3
23.549494  33.985722 47.806014  1
23.612851  33.686253 49.004909  2
20.671270  37.192784 45.644260  4
20.359890  36.583475 47.275333  4
20.033922  35.559940 45.865031  4
22.465893  35.560215 45.318883  4
22.854284  37.100498 47.921460  4
22.975043  37.774919 46.287417  4
24.131670  36.557470 46.819273  4
21.698750  34.822813 48.145755  4
20.887166  32.915407 47.604481  4
22.474247  33.852509 44.435675  4
21.006630  31.450278 43.245594  4
20.387032  34.446021 43.018874  4
19.485161  33.296573 44.022610  4
19.486338  33.117303 42.269233  4
22.649334  33.636204 41.860485  4
21.498944  32.578181 41.033470  4
22.918335  31.882292 41.811124  4
23.203486  30.965355 44.509201  4
24.267020  34.418470 45.116873  4
27.011300  33.232164 45.822182  4
26.107862  34.638470 43.254238  4
26.431061  32.901703 43.413057  4
27.742130  34.060182 43.621035  4
26.199220  36.154252 45.405778  4
27.862195  35.562268 45.535595  4
26.774598  35.417314 46.914879  4
25.349258  33.254243 47.629451  4
40.425042  31.667097 35.153298  1
41.280811  32.210847 36.027826  1
42.777910  32.304940 35.765436  1
43.426362  32.565469 34.406961  1
43.259952  31.512641 33.431250  1
43.732068  30.218348 33.996152  1
43.335609  29.125159 32.919769  1
41.554189  29.170222 32.519759  1
40.873811  30.233312 31.629518  1
41.447412  30.791185 30.289336  1
42.893541  31.358306 30.135529  1
44.142223  30.431970 29.979530  1
44.498098  29.522776 31.101321  1
43.234930  28.087772 31.382979  1
42.704720  27.221482 32.974124  1
41.366727  26.616932 33.527431  1