NumberOfAtoms 32
SpinPolarized yes
#FixSpin .true.
#TotalSpin 
NumberOfSpecies 4

 
MD.TypeOfRun  nose
MD.FinalTimeStep 250
MD.LengthTimeStep 1.0  fs
MD.InitialTemperature 300 K 
MD.TargetTemperature  300  K


%block ChemicalSpeciesLabel
1  6  c
2  8  o
3  7  n
4  1  h
%endblock ChemicalSpeciesLabel

PAO.BasisSize dzp 
 PAO.EnergyShift 0.02 Ry 
 
MeshCutoff          100 Ry
MaxSCFIterations    100  
DM.NumberPulay       3  
DM.Tolerance         1e-3
WriteDenchar	.true.

%block ProjectedDensityOfStates
-10.0 10.0 0.200 500 eV
%endblock ProjectedDensityOfStates
NetCharge 0.00

%block BandLines
1  1.000  1.000 1.000  L
20 0.00   0.00   0.00  \Gamma
25 2.00   0.000  0.00  X
30 2.00   2.00   2.00  \Gamma
%endblock BandLines


LongOutput .true.
WriteCoorXmol .true.
LatticeConstant 1 Ang
%block LatticeVectors
  18.18239 0.0 0.0
  0.0 15.63695 0.0
  0.0 0.0 9.81313
%endblock LatticeVectors


 

#UseSaveData .true.  
%block kgrid_Monkhorst_Pack
1 0 0 0.0 
 0 1 0 0.0 
 0 0 1 0.0 

%endblock kgrid_Monkhorst_Pack
WriteMDXmol .true.
AtomicCoordinatesFormat Ang
%block AtomicCoordinatesAndAtomicSpecies
0.83523  0.06278 -0.02769  1 
2.33342  0.02066 -0.03212  1 
3.02237  -1.18356 -0.03203  1 
4.43685  -1.20273 -0.03629  1 
5.22380  -2.39355 -0.03764  1 
4.62976  -3.64475 -0.03473  2 
6.63269  -2.39505 -0.04258  1 
7.32663  -3.55810 -0.04475  3 
8.67218  -3.52034 -0.04987  1 
9.40241  -2.35240 -0.05276  1 
8.71184  -1.14081 -0.05033  1 
9.50311  0.14071 -0.05356  1 
7.29171  -1.15297 -0.04530  1 
6.51975  0.02951 -0.04339  1 
5.10595  0.03863 -0.03994  1 
4.32209  1.21855 -0.04043  1 
4.89012  2.61101 -0.04541  1 
2.96519  1.20731 -0.03611  3 
0.39897  -0.94067 -0.02909  4 
0.47663  0.59209 -0.91597  4 
0.48170  0.58776 0.86517  4 
2.43809  -2.09602 -0.02882  4 
3.66894  -3.58013 -0.02938  4 
9.16106  -4.49004 -0.05170  4 
10.48599  -2.39281 -0.05691  4 
10.58136  -0.04956 -0.05749  4 
9.27794  0.72875 0.84222  4 
9.27137  0.72831 -0.94796  4 
7.05155  0.97444 -0.04494  4 
5.97855  2.66172 -0.05911  4 
4.55003  3.14518 0.84794  4 
4.52940  3.14691 -0.92966  4 
 %endblock AtomicCoordinatesAndAtomicSpecies


