NumberOfAtoms 62
SpinPolarized yes
#FixSpin .true.
#TotalSpin 
NumberOfSpecies 4

 
MD.TypeOfRun  nose
MD.FinalTimeStep 250
MD.LengthTimeStep 1.0  fs
MD.InitialTemperature 300 K 
MD.TargetTemperature  300  K


%block ChemicalSpeciesLabel
1  6  c
2  8  o
3  7  n
4  1  h
%endblock ChemicalSpeciesLabel

PAO.BasisSize dzp 
 PAO.EnergyShift 0.02 Ry 
 
MeshCutoff          100 Ry
MaxSCFIterations    100  
DM.NumberPulay       3  
DM.Tolerance         1e-3
WriteDenchar	.true.

%block ProjectedDensityOfStates
-10.0 10.0 0.200 500 eV
%endblock ProjectedDensityOfStates
NetCharge 0.00

%block BandLines
1  1.000  1.000 1.000  L
20 0.00   0.00   0.00  \Gamma
25 2.00   0.000  0.00  X
30 2.00   2.00   2.00  \Gamma
%endblock BandLines


LongOutput .true.
WriteCoorXmol .true.
LatticeConstant 1 Ang
%block LatticeVectors
  19.84921 0.0 0.0
  0.0 18.23023 0.0
  0.0 0.0 14.47873
%endblock LatticeVectors


 

#UseSaveData .true.  
%block kgrid_Monkhorst_Pack
1 0 0 0.0 
 0 1 0 0.0 
 0 0 1 0.0 

%endblock kgrid_Monkhorst_Pack
WriteMDXmol .true.
AtomicCoordinatesFormat Ang
%block AtomicCoordinatesAndAtomicSpecies
1.71850  -2.05565 0.78971  1 
3.12774  -1.47614 0.72074  1 
3.87308  -1.90187 -0.55616  1 
5.30320  -1.37387 -0.73497  1 
6.36364  -2.29683 -0.82762  1 
6.07352  -3.62799 -0.64969  2 
7.69842  -1.90202 -1.10277  1 
8.76598  -2.81962 -1.22257  1 
10.06200  -2.36983 -1.47309  1 
10.29438  -1.00746 -1.63806  1 
9.27603  -0.07058 -1.56140  1 
9.56399  1.22115 -1.74580  3 
8.57917  2.15213 -1.64492  1 
9.03492  3.58510 -1.84046  1 
9.04359  4.10289 -3.29980  1 
7.66550  4.08050 -3.96493  1 
9.59274  5.53577 -3.34214  1 
7.23204  1.81194 -1.35430  1 
6.18452  2.75804 -1.24506  1 
4.85419  2.37158 -1.05735  1 
3.72135  3.38179 -1.03915  1 
2.58388  3.06715 -2.04809  1 
1.43877  4.11240 -2.06779  1 
0.35787  3.78693 -3.11290  1 
0.75319  4.21579 -0.70540  1 
4.60329  1.01741 -0.85428  1 
5.59061  0.01412 -0.90926  1 
6.93105  0.43829 -1.17902  1 
7.96099  -0.52616 -1.27740  1 
1.14474  -1.54135 1.56897  4 
1.74187  -3.12056 1.03745  4 
1.17898  -1.92837 -0.15516  4 
3.69098  -1.77098 1.61200  4 
3.01676  -0.39415 0.78610  4 
3.30390  -1.60477 -1.44659  4 
3.86567  -2.99830 -0.57963  4 
6.74306  -3.99014 -0.04517  4 
8.60597  -3.88787 -1.13296  4 
10.88363  -3.07946 -1.54369  4 
11.31011  -0.66245 -1.83476  4 
10.06887  3.64255 -1.46112  4 
8.47522  4.26329 -1.19408  4 
9.71593  3.47384 -3.89706  4 
6.88974  4.47158 -3.30299  4 
7.39412  3.06208 -4.25999  4 
7.64475  4.70169 -4.86673  4 
8.91093  6.24009 -2.85223  4 
9.72528  5.86658 -4.37871  4 
10.56697  5.60385 -2.84757  4 
6.38907  3.81715 -1.33190  4 
4.11570  4.38349 -1.24833  4 
3.32652  3.40661 -0.01664  4 
2.15118  2.08686 -1.81271  4 
3.01436  2.97835 -3.05417  4 
1.85963  5.09313 -2.32243  4 
0.04676  2.73800 -3.06443  4 
0.70259  3.99969 -4.12960  4 
-0.53910  4.39874 -2.94720  4 
0.35559  3.24280 -0.39729  4 
-0.08207  4.92370 -0.74327  4 
1.44198  4.57255 0.06338  4 
3.56702  0.75236 -0.66335  4 
 %endblock AtomicCoordinatesAndAtomicSpecies


