NumberOfAtoms 4897
SpinPolarized yes
#FixSpin .true.
#TotalSpin
NumberOfSpecies 4


MD.TypeOfRun  nose
MD.FinalTimeStep 50
MD.LengthTimeStep 1.0  fs
MD.InitialTemperature 300 K
MD.TargetTemperature  300  K


%block ChemicalSpeciesLabel
1 6 C
2 8 O
3 7 N
4 1 H
%endblock ChemicalSpeciesLabel
PAO.BasisSize dzp 
 PAO.EnergyShift 0.02 Ry 
MeshCutoff          100 Ry
MaxSCFIterations    100
DM.NumberPulay       3
DM.Tolerance         1e-3
WriteDenchar	.true.
%block ProjectedDensityOfStates
-10.0 10.0 0.200 500 eV
%endblock ProjectedDensityOfStates
NetCharge 0.00

%block BandLines
1  1.000  1.000 1.000  L
20 0.00   0.00   0.00  \Gamma
25 2.00   0.000  0.00  X
30 2.00   2.00   2.00  \Gamma
%endblock BandLines


LongOutput .true.
WriteCoorXmol .true.
LatticeConstant 1 Ang
%block LatticeVectors
  30 0.0 0.0
  0.0 30 0.0
0.0 0.0 30
%endblock LatticeVectors




#UseSaveData .true.
%block kgrid_Monkhorst_Pack
1 0 0 0.0 
 0 1 0 0.0 
 0 0 1 0.0

%endblock kgrid_Monkhorst_Pack
WriteMDXmol .true.
AtomicCoordinatesFormat Ang
%block AtomicCoordinatesAndAtomicSpecies
18.524081  26.696345 44.527869  1
17.590704  27.507123 43.698752  1
17.710570  27.794134 42.392171  1
18.878385  27.355202 41.535434  1
16.696471  28.639121 41.676064  1
15.206506  28.317339 41.863748  1
14.284632  29.106657 40.913375  1
14.275922  28.708911 39.407021  1
13.358905  29.674748 38.650901  1
15.666122  28.645728 38.746165  1
15.696874  28.415719 37.223145  1
17.162377  28.389405 36.764098  1
17.381935  28.131012 35.261145  1
16.780280  29.249182 34.404754  1
18.864587  27.857064 34.879341  1
19.900774  28.980160 35.100509  1
20.191124  29.308147 36.565931  1
21.088800  30.526512 36.826153  1
20.550346  31.792303 36.153064  1
21.167910  30.755709 38.342433  1
17.955009  26.103906 45.249282  4
19.197359  27.361817 45.074613  4
19.115576  26.002109 43.931415  4
16.727704  27.904674 44.241051  4
19.791908  27.203499 42.115992  4
19.120756  28.108142 40.778276  4
18.634145  26.419424 41.016805  4
16.953965  28.511915 40.638398  4
16.882493  29.701468 41.876813  4
14.920794  28.583230 42.890894  4
15.013179  27.244029 41.756027  4
14.489661  30.178426 41.025852  4
13.256585  28.966843 41.283449  4
13.830727  27.707925 39.340617  4
13.792197  30.677075 38.602180  4
12.378093  29.747863 39.137719  4
13.182230  29.325402 37.629429  4
16.176194  27.762336 39.144147  4
16.230521  29.548351 38.978486  4
15.180744  29.239738 36.716712  4
15.191049  27.479428 36.965926  4
17.727524  27.663849 37.352853  4
17.507915  29.394507 36.999527  4
16.839358  27.203353 35.020318  4
17.500091  29.668310 33.695667  4
16.400007  30.078609 35.008055  4
15.942129  28.857430 33.817878  4
18.878637  27.618794 33.806364  4
19.208599  26.944485 35.382763  4
19.586250  29.871193 34.550834  4
20.844541  28.657581 34.639425  4
20.593004  28.419221 37.064406  4
19.278050  29.548668 37.089671  4
22.098446  30.318847 36.452335  4
20.890020  31.851625 35.113968  4
20.896760  32.697865 36.664636  4
19.454031  31.816743 36.150087  4
20.190783  31.066868 38.746283  4
21.889060  31.540052 38.575999  4
21.470315  29.845983 38.867047  4
29.643967  36.718433 29.250317  1
29.513237  35.275332 29.591433  1
30.387035  34.525119 30.282487  1
31.710102  35.039097 30.807626  1
30.136164  33.068343 30.547206  1
28.759665  32.643910 31.080002  1
28.700243  31.166662 31.516222  1
29.435870  30.762673 32.828863  1
29.310879  29.247523 33.013725  1
30.910350  31.202344 32.906157  1
31.722249  30.687425 34.109950  1
33.154743  31.230414 33.999310  1
34.102513  30.840143 35.149642  1
34.319742  29.325246 35.209614  1
35.454575  31.608850 35.139826  1
36.407643  31.405689 33.942191  1
35.907804  31.983201 32.617055  1
36.747321  31.658665 31.372934  1
36.946152  30.151277 31.190024  1
36.027877  32.226139 30.140754  1
28.663402  37.199017 29.303168  4
30.028718  36.818575 28.231974  4
30.304224  37.250374 29.934925  4
28.600668  34.800133 29.219537  4
32.099343  35.874648 30.220316  4
32.479493  34.260644 30.776000  4
31.600514  35.365159 31.849730  4
30.886987  32.814408 31.275914  4
30.399512  32.474346 29.663295  4
28.020863  32.777134 30.277642  4
28.437083  33.284991 31.908213  4
29.029365  30.534760 30.682102  4
27.635794  30.923925 31.662551  4
28.901926  31.243445 33.658528  4
29.898607  28.706960 32.267304  4
28.265310  28.925833 32.926368  4
29.654779  28.946419 34.007571  4
30.919645  32.288698 33.042873  4
31.429157  30.929625 31.987619  4
31.755074  29.591813 34.089268  4
31.257448  31.002767 35.049728  4
33.137105  32.316141 33.883808  4
33.516185  30.774267 33.079343  4
33.600783  31.138259 36.083630  4
35.379207  29.053003 35.214037  4
33.855067  28.803116 34.368194  4
33.880966  28.923256 36.129542  4
36.004407  31.298193 36.039507  4
35.265501  32.681799 35.272530  4
36.641432  30.342095 33.846718  4
37.356777  31.903640 34.184143  4
35.773247  33.065525 32.720219  4
34.931938  31.589591 32.374954  4
37.726031  32.145380 31.459453  4
37.803413  29.801027 31.774017  4
37.135978  29.895343 30.141113  4
36.065492  29.582599 31.511827  4
35.080732  31.693579 29.956398  4
36.648070  32.119315 29.249825  4
35.794101  33.285872 30.269535  4
25.174744  24.463610 2.652315  1
25.569817  24.705102 4.067090  1
25.068679  24.106958 5.160242  1
23.953507  23.084368 5.126293  1
25.551703  24.455288 6.538851  1
27.064866  24.517336 6.794298  1
27.429180  24.665924 8.284693  1
27.229640  23.429924 9.211984  1
27.574365  23.834642 10.648245  1
25.829579  22.790509 9.146008  1
25.534039  21.669280 10.160375  1
24.098381  21.172944 9.933097  1
23.644155  20.017176 10.845085  1
23.626731  20.436844 12.317929  1
22.293144  19.373909 10.420753  1
21.019400  20.245764 10.458025  1
20.975380  21.365283 9.416833  1
19.805297  22.353418 9.528399  1
19.722103  22.992346 10.917664  1
19.999081  23.455395 8.476738  1
26.056716  24.523146 2.009008  4
24.459752  25.228582 2.338168  4
24.731087  23.479097 2.505719  4
26.348888  25.461639 4.199770  4
23.299840  23.204047 4.258547  4
23.308613  23.170452 6.007003  4
24.372820  22.070340 5.111085  4
25.124081  23.683126 7.155406  4
25.071416  25.379358 6.883674  4
27.469515  25.394412 6.270509  4
27.576540  23.643045 6.376231  4
26.908392  25.540408 8.693882  4
28.500120  24.920826 8.323361  4
27.956867  22.670423 8.897530  4
26.831546  24.525804 11.054807  4
28.557236  24.320597 10.694513  4
27.621924  22.957161 11.299725  4
25.748564  22.282691 8.179312  4
25.063734  23.560187 9.237262  4
25.615940  22.064961 11.179492  4
26.251935  20.850402 10.047563  4
23.957303  20.897990 8.885742  4
23.499164  22.052929 10.160288  4
24.396490  19.219943 10.738548  4
22.667644  20.230486 12.801840  4
23.833466  21.502728 12.450907  4
24.391879  19.881383 12.871463  4
22.117410  18.525813 11.097583  4
22.397653  18.930278 9.422331  4
20.884666  20.640277 11.468575  4
20.159717  19.586852 10.273276  4
21.017917  20.929347 8.412679  4
21.848611  21.995052 9.498779  4
18.866625  21.828834 9.314029  4
19.156558  22.353308 11.603526  4
19.217835  23.965109 10.883051  4
20.716178  23.153874 11.351528  4
20.880163  24.074561 8.711302  4
19.129702  24.113358 8.444044  4
20.145491  23.032519 7.479737  4
45.125799  0.724007 9.848373  1
44.205701  0.863972 9.482536  1
44.035264  1.598185 8.825366  1
44.784920  2.192439 8.534027  1
44.614478  2.926658 7.876850  1
45.364134  3.520911 7.585511  1
45.193698  4.255125 6.928341  1
45.943353  4.849378 6.637002  1
45.772911  5.583597 5.979825  1
46.522567  6.177850 5.688486  1
46.352131  6.912064 5.031316  1
47.101787  7.506318 4.739977  1
46.931344  8.240536 4.082800  1
47.681000  8.834790 3.791461  1
47.510564  9.569003 3.134291  1
48.260220  10.163257 2.842952  1
48.089777  10.897475 2.185775  1
48.839433  11.491729 1.894436  1
48.668997  12.225942 1.237266  1
49.418653  12.820196 0.945927  1
49.248210  13.554414 0.288750  1
49.997866  14.148668 -0.002589  1
0.536313  46.723919 1.688010  1
0.554403  47.342627 0.902597  1
1.426154  47.584150 0.476327  1
2.279826  47.206964 0.835469  1
3.151588  47.448486 0.409198  1
4.005250  47.071301 0.768340  1
4.877011  47.312823 0.342070  1
5.730673  46.935638 0.701212  1
6.602435  47.177160 0.274941  1
7.456097  46.799975 0.634084  1
8.327859  47.041497 0.207813  1
9.181521  46.664313 0.566955  1
10.053282  46.905834 0.140684  1
10.906944  46.528650 0.499827  1
11.778706  46.770172 0.073556  1
12.632368  46.392987 0.432699  1
13.504129  46.634509 0.006428  1
48.723459  2.102438 -0.000023  1
48.646438  1.945373 0.984557  1
47.744949  1.849171 1.406521  1
46.920470  1.910036 0.843903  1
46.018971  1.813834 1.265865  1
45.194503  1.874699 0.703249  1
44.293003  1.778497 1.125211  1
43.468535  1.839362 0.562594  1
42.567036  1.743160 0.984557  1
41.742567  1.804025 0.421940  1
40.841068  1.707824 0.843902  1
40.016599  1.768688 0.281285  1
39.115100  1.672487 0.703248  1
38.290631  1.733351 0.140631  1
37.389132  1.637150 0.562593  1
36.564664  1.698014 -0.000024  1
35.663164  1.601813 0.421939  1
14.582061  25.986528 33.612610  1
14.103936  27.357930 33.222769  1
13.784455  28.274604 34.227740  1
13.355413  29.535239 33.861720  1
13.228836  29.945115 32.584178  3
13.538801  29.074062 31.609197  1
13.431488  29.498912 30.291483  1
13.744280  28.662675 29.217588  1
14.160882  27.361948 29.459277  1
14.272277  26.907852 30.772930  1
13.976680  27.754418 31.867780  1
14.661229  25.881921 34.700109  4
15.576521  25.797706 33.195475  4
13.882546  25.223297 33.256921  4
13.870730  28.019293 35.278536  4
13.098030  30.277723 34.611652  4
13.101018  30.516377 30.095986  4
13.660962  29.033333 28.199433  4
14.403647  26.701673 28.630849  4
14.599064  25.884154 30.935148  4
47.415509  1.469447 45.613975  1
46.843895  2.432443 46.604997  1
45.825344  2.004376 47.398576  3
45.282792  2.845001 48.306065  1
45.684810  4.154502 48.510132  1
46.733354  4.620605 47.704891  1
47.427618  5.868235 47.597240  1
47.325446  7.109339 48.259305  1
48.184941  8.154209 47.899929  1
49.136154  7.978141 46.897855  1
49.257895  6.758055 46.226967  1
48.389952  5.724847 46.599355  1
48.284206  4.441456 46.119718  3
48.862111  4.059076 45.386043  4
47.289209  3.748643 46.770321  1
46.906715  0.502110 45.668402  4
48.479393  1.310456 45.814847  4
47.300608  1.862038 44.598996  4
44.475534  2.418775 48.895713  4
45.209288  4.779856 49.254953  4
46.587239  7.256702 49.041875  4
48.107752  9.111783 48.409083  4
49.795106  8.801920 46.632626  4
50.000000  6.625131 45.446597  4
1.525408  0.535747 45.476619  1
1.618522  1.942134 45.986064  1
1.290831  3.016496 45.174036  1
1.250063  4.302361 45.722479  1
0.856056  5.392070 44.926463  1
0.705699  6.673905 45.479049  1
0.246777  7.769751 44.742653  1
0.047213  9.007928 45.253159  3
0.330065  9.171239 46.559460  1
0.816141  8.163843 47.376247  1
1.004046  6.885341 46.833438  1
1.452912  5.803246 47.614625  1
1.567255  4.491661 47.084272  1
1.950380  3.344315 47.817292  1
2.293476  3.370731 49.278014  1
1.960595  2.094598 47.281524  3
1.323888  0.503905 44.401384  4
0.708068  0.018914 45.990834  4
2.459544  -0.000015 45.667604  4
1.025968  2.848472 44.134556  4
0.623668  5.236499 43.876587  4
-0.000003  7.675426 43.688700  4
0.145549  10.167233 46.953009  4
1.022685  8.370658 48.421552  4
1.683836  5.989945 48.658226  4
2.551996  4.362751 49.652309  4
3.162608  2.729543 49.463556  4
1.449408  2.985285 49.859374  4
4.169787  43.795255 49.080000  1
3.829637  42.351990 48.861715  1
4.785572  41.355781 48.997926  1
4.445081  39.998932 48.787764  1
5.363335  38.912745 48.907555  1
6.688265  39.129078 49.248366  2
5.007515  37.566134 48.695354  1
5.923022  36.576507 48.824689  3
5.546326  35.301405 48.614523  1
4.265112  34.931609 48.269459  1
3.303264  35.931671 48.129576  1
1.899961  35.535434 47.752551  1
3.674765  37.285190 48.346175  1
2.760680  38.354771 48.225210  1
3.110240  39.708071 48.438075  1
2.200999  40.788074 48.321782  1
0.749597  40.636057 47.958533  1
2.555489  42.081390 48.529131  3
5.221341  43.930048 49.350746  4
3.554354  44.203077 49.887915  4
3.976938  44.364120 48.165129  4
5.790236  41.657941 49.268714  4
6.871712  40.065470 49.378355  4
6.332300  34.561971 48.736211  4
4.028205  33.884871 48.114501  4
1.805081  34.451726 47.628386  4
1.616185  35.999675 46.802358  4
1.196325  35.837877 48.535081  4
1.739201  38.112011 47.954370  4
0.423708  39.609379 47.793711  4
0.544843  41.194711 47.039265  4
0.129465  41.048132 48.761550  4
9.021363  6.584236 38.479901  1
8.565623  5.639400 37.354597  1
7.500448  6.350585 36.513692  1
9.773973  5.209521 36.498055  1
10.874131  4.505668 37.169144  3
10.985514  3.313719 37.810164  1
12.128490  2.884208 37.996316  2
9.751391  2.472752 38.191301  1
9.914463  1.865090 39.611889  1
10.006024  2.975403 40.667522  1
8.763021  0.922606 39.995145  1
9.663848  1.430895 37.169201  3
9.054704  1.497611 35.947843  1
9.385362  0.684278 35.088816  2
8.043293  2.629671 35.647880  1
6.823975  2.049679 34.876544  1
6.063674  1.018771 35.717799  1
5.843838  3.143003 34.432027  1
8.762080  3.579325 34.798623  3
9.575213  4.623222 35.084055  1
10.257762  5.058460 34.148246  2
8.173053  6.885161 39.104027  4
9.474886  7.496015 38.074123  4
9.756202  6.101589 39.132079  4
8.076777  4.794566 37.834395  4
7.921046  7.205697 35.974577  4
6.686859  6.718151 37.148717  4
7.056689  5.670393 35.781872  4
10.251570  6.175020 36.257026  4
11.796345  4.836743 36.899313  4
8.851685  3.069689 38.181817  4
10.842612  1.280705 39.657166  4
9.076989  3.553937 40.717717  4
10.826107  3.666786 40.453260  4
10.191622  2.549444 41.659677  4
7.784958  1.391075 39.841153  4
8.830541  0.639521 41.053047  4
8.795862  -0.003957 39.413409  4
10.412403  0.742848 37.170469  4
7.696260  3.122515 36.550688  4
7.177077  1.542450 33.968113  4
5.651142  1.473700 36.624244  4
6.707932  0.186037 36.015015  4
5.231916  0.594577 35.143981  4
5.494040  3.735075 35.283882  4
4.964951  2.700753 33.948583  4
6.303567  3.821339 33.706306  4
8.927673  3.260030 33.848018  4
14.137098  4.731738 10.599154  1
12.622543  4.652809 10.857254  1
11.995744  6.014218 10.539145  1
11.996109  3.525766 10.011130  1
12.492607  2.158965 10.214751  3
12.482168  1.292769 11.260528  1
12.714878  0.106791 11.005914  2
12.088833  1.735057 12.683630  1
13.028035  1.092096 13.741184  1
14.473586  1.567038 13.540306  1
12.607956  1.407894 15.185061  1
10.705519  1.294059 12.856203  3
9.561188  1.949350 12.497983  1
8.529163  1.293719 12.380319  2
9.605255  3.460588 12.168270  1
8.374393  4.169279 12.801373  1
8.393221  4.071992 14.330661  1
8.286172  5.647977 12.402265  1
9.530115  3.543465 10.709770  3
10.476413  3.486188 9.743533  1
10.070951  3.301152 8.589233  2
14.595598  5.520019 11.205875  4
14.349966  4.956109 9.547477  4
14.633854  3.789596 10.851888  4
12.495387  4.488509 11.924848  4
12.061115  6.245333 9.470933  4
12.504236  6.813317 11.089749  4
10.942375  6.041197 10.830402  4
12.379214  3.745338 8.999498  4
12.655367  1.649975 9.350265  4
12.145811  2.807973 12.790862  4
13.014238  0.000167 13.629297  4
14.564471  2.646007 13.707321  4
14.831777  1.347829 12.530305  4
15.146603  1.059930 14.240412  4
12.462061  2.482231 15.340946  4
13.375877  1.072838 15.893502  4
11.679928  0.892593 15.451974  4
10.560036  0.288241 12.886374  4
10.515037  3.933939 12.524112  4
7.454446  3.683134 12.448429  4
9.271449  4.574585 14.748875  4
8.400287  3.031624 14.668943  4
7.499789  4.543525 14.755473  4
9.200465  6.187997 12.668749  4
7.448157  6.136675 12.912804  4
8.119184  5.762665 11.326568  4
8.619009  3.323006 10.316954  4
25.570084  6.176119 41.444059  1
25.916789  5.240989 42.615405  1
26.463607  6.081945 43.773544  1
24.673430  4.431612 43.036756  1
24.043492  3.568782 42.029373  3
24.444386  2.471518 41.337022  1
23.561886  1.804007 40.788250  2
25.913698  2.006249 41.323034  1
26.335940  1.553015 39.898179  1
26.259785  2.727140 38.912699  1
27.756955  0.970265 39.852379  1
25.977550  0.901104 42.278228  3
26.167419  0.965414 43.629907  1
25.832765  -0.001189 44.309951  2
26.708470  2.263799 44.274850  1
27.761944  1.907278 45.361667  1
28.979083  1.200013 44.755952  1
28.242878  3.143377 46.132629  1
25.548896  2.901907 44.897697  3
24.604794  3.744728 44.417382  1
23.590959  3.885888 45.112550  2
26.449782  6.746247 41.126562  4
24.792484  6.895377 41.726343  4
25.211506  5.612336 40.576970  4
26.730345  4.603652 42.276513  4
25.692942  6.738533 44.190357  4
27.296726  6.709153 43.437668  4
26.842145  5.446153 44.578293  4
23.906881  5.216631 43.157296  4
23.029269  3.631981 42.013389  4
26.578776  2.797422 41.635460  4
25.651683  0.771363 39.543454  4
26.973964  3.514882 39.176777  4
25.259268  3.168641 38.890389  4
26.489169  2.391752 37.895273  4
28.486696  1.639279 40.321081  4
28.075717  0.808918 38.814973  4
27.806382  0.000099 40.356709  4
25.473413  0.057775 42.016719  4
27.156410  2.931072 43.545134  4
27.310644  1.224008 46.094251  4
29.498423  1.847063 44.041530  4
28.694878  0.278281 44.239726  4
29.691587  0.923578 45.541414  4
28.652156  3.900714 45.456243  4
29.029614  2.871850 46.846116  4
27.429607  3.597806 46.707300  4
25.207640  2.439842 45.736184  4
40.473493  42.774646 30.431069  1
39.311366  43.306339 30.031607  1
38.102181  43.427177 30.949364  1
38.150313  43.732160 32.445522  1
38.746852  42.703427 33.266498  1
38.068480  41.400998 33.020139  1
38.915617  40.331540 33.826029  1
40.681634  40.363570 33.361645  1
41.694560  41.440753 33.808032  1
41.800651  42.041473 35.244767  1
40.586657  42.631581 36.028709  1
39.549636  41.726329 36.768132  1
38.718478  40.792543 35.962579  1
39.711569  39.333971 35.174861  1
39.451750  38.418898 33.544382  1
40.386153  37.782230 32.456540  1
39.625897  37.296004 31.203229  1
39.175635  43.555639 28.654199  2
38.187310  44.487031 28.167927  1
38.791589  45.920975 27.996800  1
39.782522  46.268130 26.876506  1
37.491743  44.012648 26.860351  1
36.594948  42.847158 26.871362  2
35.370787  42.890700 27.498175  1
35.093138  43.688829 28.381235  2
34.432878  41.749841 27.020684  1
33.035578  41.979605 26.350009  1
31.844276  42.594735 27.125136  1
30.541502  42.722914 26.282126  1
29.315198  43.346878 27.000275  1
29.394656  44.789799 27.513457  1
30.471080  45.220041 28.558449  1
30.866277  44.856656 30.009507  1
31.259852  43.881455 30.876324  1
31.402128  42.355584 31.000636  1
32.798790  41.660827 31.260265  1
32.674875  40.112663 31.521764  1
34.006932  39.397140 31.817049  1
33.887944  37.862805 31.969375  1
35.201641  37.094132 32.203906  1
36.168179  37.107128 31.020375  1
36.737313  38.453763 30.614331  1
40.632483  42.444299 31.434699  4
41.302490  42.569301 29.767201  4
37.542338  42.495508 30.811864  4
37.470341  44.239430 30.635435  4
37.117806  43.774071 32.818126  4
38.645656  44.670387 32.683370  4
38.694177  43.036783 34.296662  4
39.801972  42.636165 33.090144  4
38.150987  41.015252 32.001160  4
37.029484  41.332403 33.388864  4
37.921767  39.639701 33.655532  4
38.212304  39.728452 34.638853  4
40.799054  40.198023 32.296137  4
41.313293  39.460887 33.811373  4
41.538477  42.226995 33.104210  4
42.712203  41.066965 33.519262  4
42.474974  42.897757 35.085986  4
42.345146  41.367387 35.920008  4
40.142572  43.412273 35.407264  4
41.000066  43.214697 36.862591  4
38.798337  42.371453 37.264394  4
40.016951  41.032954 37.431276  4
38.237427  41.556213 35.319483  4
37.764171  40.408841 36.331733  4
40.226569  38.686092 35.928709  4
40.518945  40.211602 35.225681  4
39.120194  39.107589 32.595727  4
38.474096  37.915303 33.528412  4
40.853236  37.014280 33.018119  4
41.128708  38.418286 31.947483  4
38.974106  36.474838 31.476948  4
40.335179  36.981440 30.435327  4
39.063401  38.084369 30.699817  4
37.386406  44.591316 28.887468  4
39.260476  46.219449 28.941509  4
37.939605  46.594503 27.841855  4
40.656114  45.614536 26.816056  4
40.167037  47.284997 27.058624  4
39.296779  46.304585 25.894779  4
38.262200  43.775858 26.117887  4
36.902427  44.845483 26.462282  4
34.330602  41.046703 27.854754  4
35.010820  41.206516 26.257533  4
32.695886  40.979726 26.041966  4
33.176267  42.552103 25.427276  4
32.151331  43.580661 27.447735  4
31.610988  41.996105 28.009811  4
30.232764  41.717248 25.952678  4
30.737254  43.276733 25.353738  4
28.987412  42.705467 27.820682  4
28.486594  43.323928 26.265575  4
28.389468  45.108322 27.838373  4
29.561261  45.424720 26.620429  4
30.241872  46.302982 28.644402  4
31.414818  45.255732 28.016159  4
30.966961  45.834025 30.515216  4
31.529758  44.308332 31.854400  4
30.899598  41.862966 30.169860  4
30.818354  42.111416 31.902793  4
33.309818  42.108838 32.124191  4
33.448470  41.821385 30.391242  4
32.242092  39.648886 30.626315  4
32.007980  39.912103 32.363017  4
34.510720  39.804344 32.700162  4
34.606514  39.653382 30.963542  4
33.393328  37.426282 31.092887  4
33.240758  37.662131 32.831017  4
34.953913  36.035084 32.397632  4
35.697901  37.439448 33.119160  4
35.694057  36.649411 30.148598  4
36.999757  36.446106 31.279217  4
36.041151  39.164476 30.203092  4
37.403447  38.325133 29.760528  4
37.247049  38.937381 31.449939  4
43.763121  25.308217 32.479250  1
43.326055  26.174165 33.402241  1
43.800982  26.145578 34.848836  1
45.214386  25.797376 35.312370  1
45.617534  24.427767 35.089226  1
44.624327  23.500946 35.698934  1
45.069673  22.051816 35.237922  1
45.208849  21.921944 33.421536  1
46.367059  22.500429 32.579212  1
47.880595  22.428686 32.953893  1
48.452777  22.873975 34.336245  1
48.365133  21.969566 35.607467  1
47.021790  21.629672 36.147463  1
45.990372  20.455278 35.011181  1
44.126787  20.356155 34.727370  1
43.195553  20.048470 33.502630  1
41.697039  20.276304 33.798840  1
42.237032  26.985264 33.036220  2
41.957734  28.208698 33.747516  1
42.636447  29.437729 33.055085  1
42.137829  30.009153 31.720027  1
40.437707  28.456489 33.963674  1
39.659421  27.589738 34.861306  2
39.849745  27.613933 36.223860  1
40.873085  28.019726 36.754899  2
38.658538  26.976598 36.988097  1
37.787871  27.730417 38.050519  1
38.370532  28.197137 39.407385  1
37.336369  28.912107 40.325884  1
37.864721  29.416851 41.695179  1
38.971165  30.478017 41.732587  1
40.361199  30.223003 41.070334  1
41.536787  29.229029 41.224634  1
41.943377  27.928419 41.204932  1
41.402045  26.489460 41.186698  1
41.716255  25.489011 40.003003  1
41.202741  24.026638 40.282852  1
41.518772  23.005854 39.173046  1
40.920855  21.599391 39.409485  1
41.156320  20.559641 38.298117  1
40.446612  20.863801 36.979439  1
40.877566  22.117799 36.241888  1
44.507171  24.572829 32.696677  4
43.353063  25.232765 31.481109  4
43.101365  25.481481 35.368306  4
43.717577  27.122239 35.292349  4
45.245616  25.886101 36.406817  4
45.982733  26.439074 34.888018  4
46.621231  24.314892 35.482914  4
45.747007  24.231898 34.043389  4
43.615173  23.556676 35.283693  4
44.600578  23.494023 36.803273  4
44.323420  21.700484 36.140762  4
45.277714  21.321061 36.208366  4
44.269915  22.186074 32.947050  4
45.365974  20.809286 33.029885  4
46.082210  23.519287 32.442485  4
46.252595  22.084577 31.543514  4
48.329825  23.123941 32.227284  4
48.305468  21.444946 32.711911  4
48.150689  23.911009 34.498072  4
49.539796  22.972017 34.213492  4
48.854780  22.490140 36.453729  4
48.748540  20.988774 35.434384  4
46.682960  22.667651 36.337114  4
46.881133  21.324996 37.187460  4
46.484730  19.468631 34.823043  4
46.664907  21.057810 34.232313  4
43.540165  21.422543 34.673855  4
43.600448  20.106375 35.660241  4
43.459618  19.042696 33.297763  4
43.270044  20.676914 32.600075  4
41.367166  19.561008 34.542886  4
41.115003  20.169535 32.881486  4
41.463334  21.295338 34.112363  4
42.377408  28.165807 34.743556  4
43.704859  29.225877 32.932478  4
42.560228  30.269220 33.766660  4
42.047687  29.279079 30.912025  4
42.862212  30.765531 31.376228  4
41.184235  30.537997 31.829786  4
39.930070  28.396614 32.994320  4
40.305051  29.477458 34.337025  4
39.015149  26.029568 37.408216  4
37.938990  26.689844 36.206022  4
36.978046  27.031741 38.307572  4
37.308827  28.589607 37.569588  4
39.176800  28.883864 39.186613  4
38.778621  27.348428 39.962892  4
36.514934  28.210910 40.546762  4
36.860237  29.746105 39.792325  4
38.171692  28.574852 42.318658  4
36.992438  29.859478 42.214889  4
39.094845  30.827399 42.771848  4
38.552890  31.375624 41.234862  4
40.854800  31.198442 41.264141  4
40.195877  30.290193 39.996021  4
42.433288  29.874060 41.261371  4
43.039624  27.856615 41.274172  4
40.332378  26.488380 41.389697  4
41.882165  26.018646 42.059690  4
42.796260  25.435124 39.805727  4
41.245665  25.858787 39.083833  4
40.111923  24.063919 40.396631  4
41.626845  23.635928 41.210300  4
42.594448  22.909187 38.991161  4
41.089748  23.464464 38.301697  4
39.840233  21.665412 39.586475  4
41.367867  21.196376 40.325620  4
40.769909  19.585329 38.647235  4
42.229007  20.396171 38.137407  4
39.366404  20.904969 37.139891  4
40.610129  20.005079 36.322681  4
40.647514  23.056331 36.716342  4
40.294273  22.220333 35.326184  4
41.949360  22.107464 36.034258  4
31.816128  5.368938 19.952286  1
31.641798  4.771685 18.766662  1
31.443239  5.550616 17.473276  1
32.119860  6.874335 17.121465  1
31.726908  8.003497 17.933089  1
30.245452  8.152011 17.912247  1
29.926470  9.290666 18.967025  1
30.625509  8.917383 20.612473  1
32.117992  9.044205 20.989323  1
33.057357  10.220679 20.577220  1
33.221763  10.724287 19.108913  1
32.178007  11.665947 18.426645  1
30.794873  11.161331 18.216878  1
29.789055  10.918951 19.848976  1
28.461198  9.651491 20.289049  1
28.051145  8.862387 21.581731  1
26.963675  7.795066 21.329880  1
31.430087  3.381542 18.789153  2
31.652084  2.583283 17.608374  1
33.102296  1.994306 17.583429  1
33.548612  0.866022 18.524335  1
30.589495  1.463609 17.419050  1
29.194562  1.803256 17.100413  2
28.846550  2.330215 15.877889  1
29.635713  2.902834 15.140853  2
27.325264  2.197305 15.599948  1
26.715976  1.428168 14.378375  1
26.909613  1.916504 12.921515  1
26.210686  1.020255 11.857299  1
26.381087  1.450272 10.375767  1
27.783474  1.484146 9.756207  1
28.910401  2.385500 10.350684  1
29.160883  3.892804 10.593773  1
28.734426  5.039651 11.193911  1
27.529166  5.645842 11.931379  1
27.632937  6.172317 13.418932  1
26.325136  6.903973 13.903578  1
26.391538  7.467987 15.335717  1
25.068949  8.092018 15.838597  1
25.065715  8.614447 17.287293  1
25.199232  7.530761 18.356362  1
26.497160  6.745197 18.378395  1
31.870529  6.431455 20.051177  4
31.838581  4.840769 20.896032  4
30.360182  5.690308 17.384889  4
31.769363  4.968881 16.629028  4
31.789580  7.169233 16.116173  4
33.205980  6.824865 17.131600  4
32.259462  8.872208 17.563134  4
32.097501  7.903593 18.933880  4
29.684560  7.311757 18.328537  4
29.816934  8.477870 16.947693  4
28.844172  9.304384 18.397910  4
29.309996  10.220951 18.443980  4
30.255941  7.964970 20.976928  4
30.257966  9.656392 21.469715  4
32.533017  8.121899 20.650195  4
32.180510  8.932987 22.103964  4
34.049404  9.828996 20.852123  4
32.905174  11.097384 21.221461  4
33.524264  9.869256 18.500389  4
34.125266  11.348358 19.086362  4
32.521547  11.899683 17.399875  4
31.971463  12.533918 19.012203  4
31.060512  10.289548 17.586318  4
30.135672  11.590860 17.458484  4
29.666709  11.860589 20.441941  4
30.914455  10.724970 20.196141  4
28.649474  8.520320 19.877738  4
27.587584  9.752884 19.628604  4
27.754066  9.657654 22.216221  4
28.793541  8.211291 22.071646  4
26.042051  8.285568 21.039904  4
26.811643  7.197593 22.230778  4
27.250611  7.044316 20.591376  4
31.570718  3.197377 16.721621  4
33.817101  2.815779 17.708549  4
33.252986  1.597492 16.571818  4
33.367822  1.053337 19.585575  4
34.637290  0.734055 18.412977  4
33.102259  -0.097106 18.251907  4
30.538052  0.868335 18.337706  4
30.930110  0.797479 16.619288  4
26.899323  3.205535 15.650774  4
26.920213  1.670899 16.477700  4
25.628728  1.437374 14.545253  4
27.024323  0.378862 14.431896  4
27.974116  1.924079 12.728700  4
26.527283  2.933961 12.803049  4
25.126774  1.012352 12.058028  4
26.526365  -0.026109 11.968702  4
25.902797  2.416220 10.202265  4
25.795022  0.725095 9.777818  4
27.688935  1.647628 8.669117  4
28.164580  0.444397 9.801633  4
29.754083  2.114765 9.681662  4
29.222210  1.901389 11.275025  4
30.173584  4.067634 10.187569  4
29.478114  5.843500 11.082284  4
26.663625  4.992235 11.836335  4
27.296291  6.552585 11.350100  4
28.472982  6.871810 13.534113  4
27.832849  5.326271 14.087740  4
25.498510  6.182996 13.870391  4
26.076021  7.735591 13.240982  4
27.198568  8.198244 15.457922  4
26.654662  6.604227 15.917367  4
24.242774  7.377705 15.735546  4
24.833981  8.943854 15.189975  4
24.101718  9.121915 17.470784  4
25.825029  9.394395 17.422688  4
24.365432  6.828504 18.279538  4
25.077449  8.021203 19.325953  4
26.682039  6.100520 17.536325  4
26.461719  6.005676 19.179089  4
27.359536  7.406543 18.482733  4
6.240448  10.651223 44.868211  1
7.276563  11.168174 44.195875  1
7.167354  12.439514 43.364746  1
6.311304  13.656241 43.711982  1
4.883411  13.437272 43.675567  1
4.489122  12.881459 42.351629  1
2.953630  12.516949 42.493892  1
2.641036  11.401033 43.905456  1