NumberOfAtoms 453
SpinPolarized yes
#FixSpin .true.
#TotalSpin 
NumberOfSpecies 4

 
MD.TypeOfRun  nose
MD.FinalTimeStep 21
MD.LengthTimeStep 0.5  fs
MD.InitialTemperature 300 K 
MD.TargetTemperature  300  K


%block ChemicalSpeciesLabel
1  6  C
2  7  N
3  1  H
4  8  O
%endblock ChemicalSpeciesLabel

PAO.BasisSize szp 
 PAO.EnergyShift 0.02 Ry 
 
MeshCutoff          100 Ry
MaxSCFIterations    100  
DM.NumberPulay       3  
DM.Tolerance         1e-3
WriteDenchar	.true.

%block ProjectedDensityOfStates
-10.0 10.0 0.200 500 eV
%endblock ProjectedDensityOfStates
NetCharge 0.00

%block BandLines
1  1.000  1.000 1.000  L
20 0.00   0.00   0.00  \Gamma
25 2.00   0.000  0.00  X
30 2.00   2.00   2.00  \Gamma
%endblock BandLines


LongOutput .true.
WriteCoorXmol .true.
LatticeConstant 1 Ang
%block LatticeVectors
  48.04029 0.0 0.0
  0.0 48.074082 0.0
  0.0 0.0 46.405864
%endblock LatticeVectors


 

#UseSaveData .true.  
%block kgrid_Monkhorst_Pack
1 0 0 0.0 
 0 1 0 0.0 
 0 0 1 0.0 

%endblock kgrid_Monkhorst_Pack
WriteMDXmol .true.
AtomicCoordinatesFormat Ang
%block AtomicCoordinatesAndAtomicSpecies
32.473148  30.600147 30.280961  1 
32.278847  31.491202 29.870747  1 
32.526135  31.667647 28.918011  1 
32.967724  30.953042 28.375480  1 
33.215012  31.129493 27.422736  1 
33.656602  30.414889 26.880205  1 
33.903890  30.591334 25.927469  1 
34.345479  29.876730 25.384938  1 
34.592767  30.053181 24.432194  1 
35.034357  29.338576 23.889664  1 
35.281645  29.515021 22.936927  1 
35.723234  28.800417 22.394397  1 
35.970522  28.976868 21.441653  1 
36.412112  28.262263 20.899122  1 
36.659400  28.438708 19.946386  1 
37.100989  27.724104 19.403855  1 
37.348277  27.900555 18.451111  1 
37.789867  27.185950 17.908581  1 
38.037155  27.362395 16.955844  1 
38.478744  26.647791 16.413314  1 
38.726032  26.824242 15.460570  1 
39.167622  26.109637 14.918039  1 
31.741009  18.213072 19.783421  1 
30.314545  18.330073 19.350135  1 
29.922904  19.482851 18.743358  2 
28.642526  19.626246 18.337629  1 
27.653270  18.668920 18.489142  1 
28.030868  17.471009 19.111669  1 
27.339314  16.264250 19.451759  1 
26.012246  15.814362 19.291766  1 
25.657018  14.540518 19.750862  1 
26.600176  13.717581 20.361753  1 
27.921682  14.139730 20.531853  1 
28.258598  15.416403 20.066978  1 
29.460504  16.081747 20.099646  2 
30.309703  15.703078 20.491997  3 
29.353382  17.328824 19.528142  1 
32.301151  19.120765 19.538660  3 
32.218843  17.367427 19.279403  3 
31.793686  18.057463 20.865329  3 
28.419284  20.578194 17.863311  3 
26.642821  18.843668 18.142152  3 
25.269525  16.448298 18.816819  3 
24.634471  14.191847 19.628514  3 
26.305064  12.730958 20.711980  3 
28.653299  13.495706 21.008651  3 
32.434499  31.960182 14.614225  1 
32.935084  31.275503 13.330732  1 
32.084465  30.027547 13.072748  1 
32.876817  32.259597 12.144674  1 
33.653379  33.501707 12.245826  2 
34.978133  33.786659 12.334614  1 
35.316179  34.950875 12.098280  4 
36.032140  32.695067 12.604884  1 
37.104162  33.199274 13.610103  1 
36.465637  33.509941 14.970731  1 
38.243265  32.190837 13.825688  1 
36.619696  32.394600 11.300156  2 
36.169851  31.515548 10.355630  1 
36.561359  31.654549 9.199700  4 
35.127653  30.436781 10.735859  1 
35.509283  29.084363 10.069968  1 
36.857385  28.565162 10.581428  1 
34.445301  28.003087 10.298891  1 
33.856010  30.915591 10.194195  2 
32.910827  31.749161 10.688326  1 
32.084651  32.184119 9.876359  4 
32.484718  31.274657 15.467016  3 
31.392835  32.285638 14.510813  3 
33.040878  32.837777 14.859995  3 
33.946661  30.931500 13.533940  3 
31.048855  30.291116 12.834402  3 
32.073520  29.376817 13.954065  3 
32.486933  29.440504 12.242962  3 
31.844527  32.645745 12.205079  3 
33.145201  34.327617 11.941647  3 
35.578836  31.804834 13.014634  3 
37.556111  34.125238 13.231485  3 
36.054828  32.605560 15.432963  3 
35.657728  34.241438 14.877713  3 
37.207816  33.931822 15.657350  3 
37.863020  31.193562 14.071941  3 
38.891538  32.510084 14.651324  3 
38.875708  32.107702 12.936239  3 
37.170641  33.138042 10.878851  3 
35.049476  30.299322 11.809816  3 
35.597934  29.226732 8.984113  3 
36.822764  28.365739 11.657448  3 
37.663694  29.279647 10.391095  3 
37.126214  27.632117 10.073306  3 
34.257017  27.848795 11.366275  3 
34.769749  27.045759 9.874624  3 
33.498461  28.265069 9.816168  3 
33.776671  30.861599 9.182360  3 
31.319829  5.277857 8.689323  1 
31.875741  6.494034 8.620901  1 
33.266873  6.732821 8.049289  1 
33.883734  5.980506 6.871442  1 
34.154326  4.580612 7.106448  1 
34.995813  4.424262 8.324913  1 
35.071488  2.862329 8.580803  1 
33.413737  2.106078 8.705063  1 
32.478524  1.822668 7.508962  1 
32.923025  1.231501 6.134456  1 
34.098174  1.806994 5.283336  1 
35.594760  1.493307 5.605008  1 
36.156863  1.959823 6.900423  1 
35.438545  1.047166 8.444845  1 
35.121431  1.674441 10.196783  1 
34.031898  1.420451 11.296903  1 
34.166185  2.353453 12.520287  1 
31.208895  7.528259 9.301724  4 
31.452187  8.909357 8.963911  1 
30.416786  9.429086 7.911078  1 
28.946235  9.693995 8.264387  1 
31.503502  9.842577 10.206922  1 
32.605086  9.737326 11.175511  4 
33.886598  10.115998 10.847340  1 
34.294907  10.188868 9.697615  4 
34.766772  10.338794 12.106262  1 
35.472150  11.692248 12.460734  1 
36.616573  12.273052 11.593919  1 
37.192397  13.617672 12.127532  1 
38.333231  14.257923 11.292388  1 
38.059931  14.687808 9.845945  1 
37.585777  13.660347 8.771093  1 
38.119169  12.366326 8.111697  1 
38.557911  11.088829 8.292793  1 
39.002145  10.103416 9.386226  1 
38.240989  8.742565 9.649825  1 
38.974645  7.821752 10.695960  1 
38.289907  6.466854 10.958505  1 
38.960084  5.615478 12.061939  1 
38.276660  4.278785 12.405228  1 
36.902238  4.414659 13.059148  1 
35.804856  5.047541 12.224026  1 
31.805908  4.407979 8.303682  3 
30.388383  5.068356 9.197891  3 
33.948025  6.642290 8.902621  3 
33.350479  7.735083 7.667179  3 
34.884233  6.395443 6.688434  3 
33.302664  6.053298 5.955327  3 
34.607678  4.180474 6.206726  3 
33.242917  4.021887 7.184307  3 
34.541239  4.771630 9.255839  3 
36.035426  4.785467 8.230517  3 
36.005436  3.179319 9.303787  3 
36.239940  2.470472 8.595441  3 
32.836271  2.579687 9.491655  3 
33.428109  0.974220 9.072185  3 
31.993272  2.759762 7.353109  3 
31.639941  1.186881 7.897880  3 
32.025348  1.389187 5.516024  3 
33.046637  0.141343 6.190069  3 
33.886725  2.863291 5.103307  3 
33.998498  1.381856 4.275559  3 
36.236736  1.994574 4.854336  3 
35.780296  0.445751 5.689356  3 
35.969605  3.041729 6.750127  3 
37.231229  2.099660 7.043204  3 
35.616886  -0.057967 8.433254  3 
34.533150  1.012805 7.667826  3 
34.684817  2.808426 10.284073  3 
36.059217  1.992012 10.675715  3 
34.190621  0.392964 11.502721  3 
32.974505  1.626358 11.063199  3 
35.092385  2.133114 13.037659  3 
33.313541  2.217720 13.188328  3 
34.106514  3.414147 12.269860  3 
32.422035  9.014309 8.496535  3 
30.421012  8.750855 7.050030  3 
30.801757  10.392527 7.554561  3 
28.428894  8.856503 8.738694  3 
28.400220  9.908388 7.331145  3 
28.828092  10.585765 8.890369  3 
30.589480  9.697524 10.793822  3 
31.503971  10.880718 9.858167  3 
35.497460  9.522892 12.136840  3 
34.095897  10.154310 12.959205  3 
35.913287  11.535247 13.456118  3 
34.708432  12.467199 12.583896  3 
36.213422  12.433237 10.602852  3 
37.443684  11.561583 11.522304  3 
37.599850  13.451859 13.138327  3 
36.387830  14.353137 12.264291  3 
39.217446  13.617615 11.301801  3 
38.633294  15.174477 11.837169  3 
38.924715  15.264763 9.476213  3 
37.270186  15.463540 9.900022  3 
37.460933  14.332426 7.896216  3 
36.545558  13.441051 9.007416  3 
37.976267  12.535717 7.029100  3 
38.696499  10.578618 7.327296  3 
39.145323  10.628720 10.329069  3 
40.003453  9.781965 9.057063  3 
38.122209  8.168336 8.720102  3 
37.230794  8.959846 10.017737  3 
39.020035  8.359665 11.651371  3 
39.997600  7.609522 10.377841  3 
38.199845  5.863411 10.048971  3 
37.296560  6.756548 11.246551  3 
39.055667  6.193643 12.989310  3 
39.977585  5.379359 11.729547  3 
38.916420  3.736915 13.124649  3 
38.228921  3.627175 11.524130  3 
36.990677  4.966359 13.998347  3 
36.581922  3.408389 13.342501  3 
35.923835  6.090818 11.986772  3 
34.883061  5.089265 12.805241  3 
35.661272  4.510205 11.284552  3 
0.529777  40.016115 2.227696  1 
-0.036837  39.201288 2.105170  1 
0.393432  38.309575 1.964750  1 
1.390315  38.232691 1.946857  1 
1.820585  37.340978 1.806438  1 
2.817459  37.264089 1.788544  1 
3.247728  36.372377 1.648125  1 
4.244612  36.295492 1.630232  1 
4.674881  35.403780 1.489813  1 
5.671764  35.326895 1.471920  1 
6.102034  34.435183 1.331501  1 
7.098908  34.358293 1.313607  1 
7.529177  33.466581 1.173188  1 
8.526061  33.389696 1.155295  1 
8.956330  32.497984 1.014875  1 
9.953204  32.421095 0.996982  1 
10.383474  31.529383 0.856562  1 
11.380357  31.452498 0.838669  1 
11.810626  30.560785 0.698250  1 
12.807501  30.483896 0.680357  1 
13.237770  29.592184 0.539937  1 
14.234653  29.515299 0.522044  1 
14.664923  28.623587 0.381625  4 
14.801258  30.330122 0.644570  1 
15.798142  30.253237 0.626677  1 
16.228411  29.361525 0.486258  1 
17.225286  29.284636 0.468364  1 
17.655555  28.392924 0.327945  1 
18.652438  28.316039 0.310052  1 
19.082707  27.424327 0.169632  1 
20.079582  27.347437 0.151739  1 
20.509851  26.455725 0.011319  1 
21.506735  26.378840 -0.006574  4 
35.373907  1.989872 1.654599  1 
35.145491  3.382126 2.234254  1 
35.075547  4.465186 1.143685  1 
34.844655  5.908747 1.611468  1 
35.820714  6.882877 1.322763  1 
36.984562  6.467256 0.722320  4 
35.638919  8.258293 1.620086  1 
36.599250  9.248110 1.313405  1 
36.373434  10.582537 1.649636  1 
35.176479  10.941396 2.262651  1 
34.190018  10.013049 2.555438  1 
33.056550  10.426169 3.129957  2 
32.093606  9.521497 3.447886  1 
30.869549  10.105908 4.125746  1 
29.746964  10.609738 3.185633  1 
29.161688  9.515148 2.290448  1 
28.614322  11.233953 4.012665  1 
32.233069  8.132964 3.188127  1 
31.247631  7.167271 3.505442  1 
31.382474  5.824321 3.141210  1 
30.281336  4.810835 3.395224  1 
29.838278  4.034353 2.125747  1 
28.686773  3.023501 2.363297  1 
28.248260  2.311329 1.072155  1 
29.086095  1.949382 3.375041  1 
32.586177  5.436378 2.559347  1 
33.633126  6.324264 2.243165  1 
33.429842  7.705194 2.561247  1 
34.432336  8.649641 2.239306  1 
35.172657  1.232586 2.420737  3 
36.408690  1.865700 1.323299  3 
34.709092  1.787010 0.807882  3 
35.934277  3.613772 2.957215  3 
34.223170  3.325211 2.811642  3 
34.283937  4.227799 0.421119  3 
36.004469  4.395871 0.564838  3 
37.720291  6.886121 1.199955  3 
37.524027  9.000334 0.805285  3 
37.125532  11.337266 1.429713  3 
35.005776  11.986863 2.522051  3 
31.218004  10.967689 4.719180  3 
30.468680  9.414482 4.868879  3 
30.152605  11.395304 2.535398  3 
28.968397  8.596074 2.847990  3 
29.840666  9.287117 1.462875  3 
28.203763  9.820946 1.856376  3 
28.092016  10.478249 4.610203  3 
27.875720  11.709063 3.356756  3 
28.994562  12.003365 4.692210  3 
30.341516  7.455734 4.022007  3 
29.408102  5.314036 3.827569  3 
30.651950  4.114606 4.156765  3 
30.697134  3.487917 1.716632  3 
29.537876  4.755037 1.353887  3 
27.816036  3.564868 2.753853  3 
29.104977  1.934844 0.503219  3 
27.665643  2.973410 0.424094  3 
27.608349  1.448933 1.302611  3 
29.980069  1.413565 3.038237  3 
28.282028  1.216036 3.501174  3 
29.285176  2.380114 4.358692  3 
32.681144  4.378390 2.330866  3 
13.792606  11.749444 35.244405  1 
15.053412  11.094061 35.249026  1 
15.054589  9.599106 35.552627  1 
13.677474  8.861817 35.607656  1 
12.523847  9.778840 35.999406  1 
12.597412  11.125082 35.671592  1 
13.736811  13.082414 34.796083  1 
14.895359  13.781379 34.450993  1 
16.176314  13.242503 34.711111  1 
16.263154  11.851551 35.040132  1 
14.782705  15.057581 33.830223  1 
15.921919  15.818361 33.567171  1 
17.107005  15.361950 34.193564  1 
17.232171  14.083083 34.660874  2 
13.505697  15.584188 33.518548  1 
13.349173  16.716220 32.684131  1 
14.515316  17.277462 32.096397  1 
15.759754  16.926806 32.657163  1 
12.484153  13.748472 34.724983  1 
12.376182  14.992781 34.065030  1 
11.388722  11.860259 35.778019  1 
11.357886  13.185911 35.303840  1 
11.374687  9.180302 36.430876  2 
10.224513  9.891971 36.575460  1 
10.212621  11.243708 36.261990  1 
14.792226  18.115331 30.946803  1 
16.131054  18.448155 31.011139  1 
16.659888  17.807362 32.103301  2 
14.066073  18.553969 29.807431  1 
14.687938  19.298628 28.758435  1 
16.050282  19.661587 28.905120  1 
16.759559  19.256366 30.061970  1 
11.118975  15.644613 33.962179  1 
10.980343  16.782391 33.151120  1 
12.080114  17.278765 32.471413  1 
10.181780  13.967684 35.390912  1 
10.050379  15.165374 34.688617  1 
8.941562  12.052948 36.302070  1 
9.119570  13.548200 36.340154  1 
17.648562  11.141265 35.156098  1 
18.752622  11.685468 34.229472  1 
18.144579  11.028664 36.625109  1 
19.515447  10.351354 36.845921  1 
19.611230  8.917243 36.340612  1 
18.273894  16.288065 34.481090  1 
18.641897  16.366320 35.978131  1 
19.833195  17.306492 36.283685  1 
19.560403  18.750303 35.844996  1 
20.660506  19.775872 36.167223  1 
20.257309  21.208810 35.713834  1 
19.012709  21.719005 36.473026  1 
18.569332  23.117225 36.068093  1 
21.435676  22.181035 35.855220  1 
16.896822  20.400252 27.875683  1 
16.937021  21.921678 28.072731  1 
17.904801  22.610219 27.116244  1 
13.854988  19.507941 27.489232  1 
13.527366  20.957148 27.095930  1 
12.596728  21.115247 25.863931  1 
12.393670  22.609274 25.539797  1 
13.085082  20.354530 24.614807  1 
14.486448  20.734282 24.155340  1 
9.047695  9.092906 37.138833  1 
7.624363  9.410357 36.633512  1 
6.467723  8.674687 37.322726  1 
5.136783  9.232851 36.790836  1 
6.555978  7.172807 37.127572  1 
13.830292  7.567861 36.456128  1 
12.587464  6.689165 36.588422  1 
15.578628  9.453220 36.502065  3 
15.640699  9.090952 34.772950  3 
13.444312  8.544596 34.579302  3 
17.641429  17.853098 32.332103  3 
13.039502  18.213613 29.687972  3 
17.812061  19.500881 30.178499  3 
10.019724  17.265972 33.052380  3 
11.955811  18.160713 31.846189  3 
9.115766  15.712322 34.735529  3 
8.352420  11.786837 35.412729  3 
8.405621  11.843143 37.225510  3 
9.421408  13.850115 37.351799  3 
8.158921  14.031421 36.128588  3 
17.496371  10.119650 34.789332  3 
19.126938  12.662831 34.546309  3 
18.402120  11.755943 33.194837  3 
19.622387  11.019529 34.219017  3 
17.405151  10.480061 37.219862  3 
18.196984  12.032096 37.065679  3 
19.735395  10.349449 37.921783  3 
20.310972  10.946333 36.383637  3 
18.891434  8.267087 36.846924  3 
20.614029  8.516003 36.530848  3 
19.437190  8.857015 35.263422  3 
18.010915  17.301820 34.183897  3 
19.137000  15.975076 33.885355  3 
18.879597  15.365165 36.356124  3 
17.766063  16.708860 36.547924  3 
20.735258  16.926436 35.792282  3 
20.021476  17.280703 37.365366  3 
18.615663  19.052923 36.304157  3 
19.422117  18.772209 34.759970  3 
21.575157  19.481876 35.635482  3 
20.900411  19.772179 37.237623  3 
20.007822  21.161504 34.645381  3 
19.197688  21.695863 37.553584  3 
18.162558  21.056375 36.282516  3 
19.314869  23.870213 36.335962  3 
17.640453  23.378963 36.584643  3 
18.385651  23.169944 34.990333  3 
21.690288  22.354835 36.905768  3 
21.202735  23.150800 35.400455  3 
22.324580  21.803284 35.340714  3 
16.585768  20.136741 26.860524  3 
17.928933  20.022948 27.955905  3 
17.212547  22.176157 29.103187  3 
15.945883  22.349047 27.912351  3 
18.937821  22.282787 27.274800  3 
17.871469  23.694646 27.269953  3 
17.635655  22.412897 26.073752  3 
12.898157  18.976605 27.597717  3 
14.371625  18.992747 26.671503  3 
14.456470  21.476201 26.868555  3 
13.071700  21.476024 27.948911  3 
11.608133  20.708829 26.116707  3 
13.327118  23.177247 25.621350  3 
11.674913  23.059036 26.232848  3 
12.004184  22.756534 24.525295  3 
12.382176  20.533861 23.790878  3 
13.047671  19.274222 24.799542  3 
14.691166  21.800058 24.286867  3 
14.611922  20.497825 23.094255  3 
15.242680  20.172026 24.710983  3 
9.079580  9.191499 38.230822  3 
9.243470  8.035032 36.918914  3 
7.586396  9.279728 35.545397  3 
7.358168  10.441150 36.821377  3 
6.499783  8.889490 38.399290  3 
5.126280  9.277351 35.696030  3 
4.973797  10.253206 37.161222  3 
4.286462  8.627664 37.118310  3 
6.754640  6.921843 36.081514  3 
5.625994  6.684037 37.432351  3 
7.363191  6.761402 37.741453  3 
14.181666  7.819998 37.463761  3 
14.614378  6.952604 35.994536  3 
11.893332  7.091174 37.333230  3 
12.855966  5.691449 36.947698  3 
12.063982  6.581988 35.633229  3 
 %endblock AtomicCoordinatesAndAtomicSpecies

