NumberOfAtoms 4019
SpinPolarized yes
#FixSpin .true.
#TotalSpin
NumberOfSpecies 4


MD.TypeOfRun  nose
MD.FinalTimeStep 100
MD.LengthTimeStep 1.0  fs
MD.InitialTemperature 300 K
MD.TargetTemperature  300  K


%block ChemicalSpeciesLabel
1 6 C
2 8 O
3 7 N
4 1 H
%endblock ChemicalSpeciesLabel
PAO.BasisSize dzp 
 PAO.EnergyShift 0.02 Ry 
MeshCutoff          100 Ry
MaxSCFIterations    100
DM.NumberPulay       3
DM.Tolerance         1e-3
WriteDenchar	.true.
%block ProjectedDensityOfStates
-10.0 10.0 0.200 500 eV
%endblock ProjectedDensityOfStates
NetCharge 0.00

%block BandLines
1  1.000  1.000 1.000  L
20 0.00   0.00   0.00  \Gamma
25 2.00   0.000  0.00  X
30 2.00   2.00   2.00  \Gamma
%endblock BandLines


LongOutput .true.
WriteCoorXmol .true.
LatticeConstant 1 Ang
%block LatticeVectors
  30 0.0 0.0
  0.0 30 0.0
0.0 0.0 30
%endblock LatticeVectors




#UseSaveData .true.
%block kgrid_Monkhorst_Pack
1 0 0 0.0 
 0 1 0 0.0 
 0 0 1 0.0

%endblock kgrid_Monkhorst_Pack
WriteMDXmol .true.
AtomicCoordinatesFormat Ang
%block AtomicCoordinatesAndAtomicSpecies
17.171934  15.305679 5.882403  1
18.227360  14.460410 6.504967  1
18.673176  13.271031 6.068478  1
18.123160  12.558410 4.851882  1
19.741279  12.513285 6.803453  1
21.009347  13.263459 7.237049  1
22.114049  12.336272 7.781145  1
22.880835  11.438982 6.764144  1
23.861964  10.552079 7.536327  1
21.982736  10.588586 5.845655  1
22.694049  9.568043 4.936831  1
21.631392  8.826835 4.111913  1
22.173739  7.785376 3.114383  1
22.899835  6.644008 3.832550  1
21.103079  7.244697 2.124216  1
19.905919  6.454060 2.694868  1
18.924291  7.282996 3.524696  1
17.813673  6.504038 4.244212  1
18.375297  5.395511 5.139174  1
17.009802  7.489196 5.105113  1
17.438533  16.361056 5.984223  4
16.220152  15.134067 6.392054  4
17.048694  15.102477 4.818867  4
18.662954  14.875070 7.418869  4
17.086269  12.830340 4.638579  4
18.130338  11.472294 4.990630  4
18.734234  12.791549 3.970665  4
20.014622  11.734160 6.112452  4
19.305142  11.981564 7.658170  4
20.741696  13.960187 8.043456  4
21.411049  13.873894 6.420360  4
21.700226  11.727060 8.594157  4
22.864545  12.986472 8.257987  4
23.470803  12.108196 6.124870  4
23.334963  9.798586 8.127338  4
24.481267  11.150613 8.216439  4
24.544451  10.038768 6.852672  4
21.506621  11.270474 5.133413  4
21.229548  10.069513 6.437702  4
23.235365  8.841331 5.553871  4
23.413353  10.071922 4.283095  4
20.992716  9.543409 3.591270  4
21.050063  8.310568 4.873868  4
22.916089  8.306789 2.489896  4
22.525817  5.658625 3.539750  4
22.812628  6.712889 4.920751  4
23.966929  6.668980 3.585418  4
21.623891  6.573127 1.427081  4
20.728373  8.069968 1.505265  4
20.279823  5.598443 3.263305  4
19.349809  6.033484 1.845627  4
18.497351  8.074272 2.898774  4
19.438939  7.790960 4.326549  4
17.140417  6.062557 3.499853  4
18.545715  4.481491 4.561124  4
17.683547  5.146366 5.952292  4
19.328355  5.685957 5.597252  4
17.623212  7.882742 5.931879  4
16.139618  6.997390 5.541818  4
16.661162  8.340413 4.515071  4
24.590653  20.378347 2.849224  1
23.559229  21.401925 2.526045  1
22.688031  21.968976 3.376553  1
22.588053  21.612980 4.844109  1
21.685188  22.986314 2.913369  1
22.167847  24.144997 2.028349  1
21.097940  25.231808 1.804247  1
20.746800  26.168231 2.998899  1
19.611511  27.102890 2.571102  1
20.390307  25.440204 4.308962  1
19.880589  26.316331 5.469146  1
19.580062  25.407350 6.670210  1
19.090590  26.127913 7.941056  1
17.750669  26.831951 7.707301  1
19.043078  25.218385 9.201841  1
18.078690  24.012608 9.203176  1
18.451157  22.889832 8.233648  1
17.431370  21.751329 8.086015  1
16.042067  22.269264 7.702883  1
17.930439  20.791379 6.996372  1
25.491838  20.565445 2.259205  4
24.208616  19.384919 2.599761  4
24.880214  20.395652 3.899673  4
23.526254  21.698993 1.473636  4
22.924113  20.594203 5.053264  4
21.553174  21.670360 5.197215  4
23.189356  22.309343 5.442291  4
21.294198  23.387587 3.832793  4
20.828454  22.484838 2.446452  4
22.433800  23.740661 1.041870  4
23.078171  24.602969 2.431521  4
20.190317  24.762188 1.405430  4
21.470678  25.878595 0.994237  4
21.631488  26.787976 3.193389  4
18.672851  26.556488 2.448061  4
19.847460  27.598592 1.620872  4
19.456372  27.892370 3.312259  4
21.316384  25.011447 4.705815  4
19.660766  24.655116 4.112349  4
18.956731  26.823817 5.167792  4
20.623813  27.076138 5.731775  4
20.451846  24.792504 6.903471  4
18.778019  24.772115 6.298384  4
19.836599  26.905988 8.166908  4
16.996717  26.556892 8.450605  4
17.329329  26.611426 6.722227  4
17.885058  27.917340 7.772563  4
18.751740  25.859001 10.046225  4
20.056475  24.870163 9.439211  4
17.060511  24.367931 9.024114  4
18.077406  23.588763 10.216934  4
19.437068  22.492773 8.499161  4
18.551691  23.272869 7.229142  4
17.364554  21.200167 9.031534  4
15.479842  22.563363 8.595087  4
15.456460  21.502067 7.183051  4
16.101182  23.141153 7.040442  4
17.917599  21.276351 6.006761  4
17.294008  19.907216 6.941453  4
18.954317  20.463940 7.193163  4
9.645876  10.841567 7.844819  1
8.999214  11.947080 7.086097  1
9.613434  12.921536 6.395396  1
11.116443  13.077194 6.310641  1
8.836038  13.989306 5.680740  1
7.658521  13.569448 4.788586  1
7.086146  14.725627 3.944952  1
7.932974  15.241659 2.743297  1
7.210199  16.434987 2.111599  1
9.389999  15.605397 3.087027  1
10.217345  16.270796 1.970702  1
11.626535  16.554230 2.511967  1
12.606742  17.191025 1.508210  1
12.132139  18.576855 1.061081  1
14.080605  17.226858 2.003710  1
14.415452  18.065301 3.256242  1
13.839886  17.523690 4.565716  1
14.010842  18.414513 5.804731  1
13.448306  19.821633 5.583878  1
13.275619  17.755795 6.980925  1
9.054174  9.928270 7.739751  4
9.695252  11.107034 8.904146  4
10.650719  10.621290 7.485156  4
7.905687  11.943544 7.119091  4
11.632138  12.655621 7.177199  4
11.404806  14.132683 6.268952  4
11.495359  12.586323 5.405226  4
9.580172  14.474742 5.072586  4
8.516020  14.761344 6.391394  4
6.847642  13.203701 5.433615  4
7.932456  12.735901 4.131978  4
6.819946  15.555610 4.611017  4
6.130719  14.368929 3.528648  4
7.958580  14.436564 1.997813  4
7.229042  17.305407 2.772500  4
6.162423  16.190423 1.895537  4
7.674763  16.713505 1.161194  4
9.924934  14.668006 3.271650  4
9.416719  16.239908 3.972426  4
9.749848  17.219741 1.682919  4
10.261565  15.624313 1.088224  4
12.059834  15.642118 2.927611  4
11.439011  17.264644 3.315209  4
12.610496  16.541290 0.618957  4
12.900816  19.344791 1.187620  4
11.246759  18.911965 1.609107  4
11.872108  18.554941 -0.003011  4
14.684242  17.632341 1.179420  4
14.441915  16.200765 2.149196  4
14.107448  19.100486 3.087327  4
15.509217  18.087894 3.358808  4
14.241881  16.521815 4.752320  4
12.770180  17.399066 4.487894  4
15.075864  18.485321 6.055655  4
14.193577  20.464814 5.104810  4
13.165841  20.294792 6.531551  4
12.556493  19.807904 4.945916  4
12.186076  17.754788 6.814835  4
13.469985  18.296871 7.907890  4
13.592313  16.718817 7.117503  4
4.742828  11.316555 5.784367  1
5.427069  10.102010 6.306560  1
5.602422  8.934247 5.666656  1
5.076547  8.646157 4.277084  1
6.304711  7.777801 6.318296  1
7.644269  8.033994 7.024493  1
8.365698  6.742395 7.457382  1
9.013333  5.860781 6.348009  1
9.592813  4.601631 6.999333  1
8.073764  5.490643 5.184573  1
8.619235  4.489803 4.148127  1
7.537684  4.253195 3.083523  1
7.930416  3.298069 1.940133  1
8.207860  1.884078 2.459125  1
6.919919  3.282127 0.757881  1
5.482790  2.784949 1.025124  1
4.641282  3.698971 1.917183  1
3.266748  3.160511 2.339874  1
3.369219  1.793212 3.021932  1
2.631149  4.163798 3.313180  1
5.261323  12.211551 6.138496  4
3.713079  11.340302 6.150614  4
4.734962  11.354711 4.695298  4
5.811389  10.198565 7.326305  4
4.194729  9.242528 4.029447  4
4.773483  7.598812 4.176235  4
5.855472  8.846966 3.530586  4
6.464025  7.091823 5.503871  4
5.617019  7.250384 6.990900  4
7.450746  8.619975 7.933631  4
8.314258  8.638472 6.402644  4
7.685063  6.143267 8.074761  4
9.179458  7.047716 8.134107  4
9.850860  6.433375 5.929360  4
8.800237  3.940290 7.358817  4
10.236751  4.859769 7.849650  4
10.211020  4.044703 6.289184  4
7.911243  6.399152 4.595384  4
7.128045  5.115212 5.574335  4
8.846529  3.537474 4.641358  4
9.538148  4.872042 3.691885  4
7.200224  5.206884 2.672364  4
6.730167  3.799456 3.655439  4
8.871426  3.684747 1.518329  4
7.635072  1.120802 1.924405  4
7.975959  1.776637 3.522708  4
9.268057  1.641336 2.327037  4
7.344277  2.626139 -0.015326  4
6.877673  4.278802 0.300245  4
5.523971  1.769177 1.427017  4
4.972265  2.706229 0.055321  4
4.541362  4.680211 1.440361  4
5.142846  3.880454 2.855988  4
2.623060  3.077265 1.456140  4
3.377380  0.990039 2.277979  4
2.519723  1.613250 3.691052  4
4.283062  1.705016 3.621620  4
3.192480  4.204508 4.260778  4
1.605194  3.876281 3.546751  4
2.616163  5.171995 2.891773  4
32.619867  20.105893 0.646671  1
31.428140  20.979285 0.828232  1
30.572506  20.975261 1.863496  1
30.666605  20.018498 3.032342  1
29.396225  21.907389 1.915561  1
29.622703  23.395362 1.609933  1
28.393775  24.276420 1.909192  1
28.031939  24.542648 3.401029  1
26.740241  25.363833 3.452515  1
27.910396  23.278529 4.273157  1
27.397462  23.478973 5.711962  1
27.345957  22.109651 6.405808  1
26.885618  22.128156 7.876043  1
25.443615  22.627237 8.007346  1
27.089275  20.775733 8.616689  1
26.309006  19.539759 8.119205  1
26.739950  19.015780 6.748411  1
25.881162  17.893545 6.147559  1
24.402206  18.282191 6.064795  1
26.402255  17.586789 4.736086  1
33.424147  20.675133 0.173002  4
32.359118  19.263690 0.000306  4
33.004707  19.724109 1.592043  4
31.251648  21.684869 0.010978  4
31.161467  19.080314 2.768699  4
29.673176  19.744730 3.402613  4
31.219071  20.485435 3.857605  4
29.043757  21.807782 2.928023  4
28.577394  21.514892 1.299976  4
29.845896  23.499596 0.539102  4
30.494271  23.785290 2.147800  4
27.526931  23.874739 1.370109  4
28.591310  25.258665 1.451418  4
28.835211  25.160753 3.822079  4
25.880402  24.771500 3.129102  4
26.810663  26.248133 2.806463  4
26.548180  25.725067 4.467051  4
28.921727  22.885109 4.419351  4
27.283060  22.540476 3.774182  4
26.386502  23.902238 5.685904  4
28.048248  24.168817 6.259003  4
28.314115  21.611015 6.325275  4
26.609077  21.567041 5.816204  4
27.533006  22.850336 8.397850  4
24.811665  21.939541 8.576833  4
24.963897  22.778240 7.035955  4
25.429532  23.587617 8.534470  4
26.794006  20.937712 9.663029  4
28.159817  20.536426 8.652027  4
25.238414  19.759813 8.139566  4
26.465841  18.732040 8.847452  4
27.793020  18.716438 6.788576  4
26.687546  19.800042 6.008111  4
25.984732  16.990492 6.760764  4
23.893474  18.069889 7.010701  4
23.882784  17.721632 5.278839  4
24.273371  19.348995 5.846059  4
26.225242  18.436236 4.056528  4
25.894364  16.716172 4.319101  4
27.476258  17.384970 4.743656  4
15.905107  19.959656 0.942483  1
16.627193  19.407662 2.121416  1
17.419789  18.323742 2.149823  1
17.680385  17.437236 0.951221  1
18.081855  17.866285 3.417739  1
18.817991  18.903348 4.278767  1
19.634740  18.278011 5.426789  1
20.943515  17.515932 5.061102  1
21.534207  16.915611 6.340233  1
20.781428  16.435332 3.975098  1
22.008976  15.547259 3.696004  1
21.642284  14.541808 2.594313  1
22.774323  13.590682 2.161082  1
23.217271  12.682893 3.312349  1
22.450956  12.769013 0.880702  1
21.277406  11.766710 0.926669  1
19.891385  12.403647 1.038910  1
18.714660  11.440593 1.252913  1
18.923795  10.538506 2.472630  1
17.438380  12.270875 1.451999  1
15.907446  21.051976 0.988246  4
14.869125  19.610802 0.953777  4
16.367775  19.672670 -0.001532  4
16.470244  19.961151 3.051964  4
16.862475  17.459128 0.226562  4
17.794760  16.389811 1.249163  4
18.603550  17.748673 0.446164  4
18.788579  17.128538 3.077877  4
17.369462  17.301572 4.031807  4
18.071653  19.568874 4.734193  4
19.469153  19.539232 3.668344  4
18.974931  17.640411 6.028034  4
19.926052  19.105296 6.093212  4
21.655827  18.261167 4.684514  4
20.913404  16.099533 6.718913  4
21.620517  17.675281 7.127495  4
22.541109  16.527901 6.159983  4
20.623054  16.951804 3.022671  4
19.929635  15.797217 4.208564  4
22.277861  14.996112 4.604744  4
22.865461  16.159472 3.395519  4
21.243983  15.067063 1.723728  4
20.850648  13.954484 3.056282  4
23.632818  14.226780 1.894054  4
23.208145  11.623727 3.039064  4
22.585527  12.793827 4.198421  4
24.243378  12.929908 3.606419  4
23.353272  12.190571 0.636819  4
22.308356  13.452991 0.034288  4
21.449661  11.050082 1.733998  4
21.300523  11.184447 -0.004882  4
19.713501  13.042528 0.166922  4
19.842538  13.058995 1.895642  4
18.589064  10.818055 0.359088  4
19.508508  9.653169 2.202616  4
17.968943  10.189607 2.882846  4
19.455474  11.059565 3.277819  4
17.479633  12.838255 2.395965  4
16.560774  11.624274 1.490981  4
17.299146  12.987578 0.638844  4
31.792101  3.848788 35.937434  1
31.950682  4.252034 35.036183  1
31.269318  4.864625 34.635601  1
30.429371  5.073977 35.136262  1
29.748005  5.686574 34.735672  1
28.908058  5.895925 35.236333  1
28.226694  6.508516 34.835750  1
27.386747  6.717867 35.336411  1
26.705381  7.330465 34.935821  1
25.865434  7.539816 35.436482  1
25.184070  8.152407 35.035899  1
24.344123  8.361758 35.536560  1
23.662757  8.974355 35.135970  1
22.822810  9.183707 35.636631  1
22.141446  9.796298 35.236049  1
21.301499  10.005649 35.736709  1
20.620133  10.618246 35.336120  1
19.780186  10.827597 35.836780  1
19.098822  11.440189 35.436198  1
18.258875  11.649540 35.936859  1
17.577509  12.262137 35.536269  1
16.737562  12.471488 36.036930  1
32.967771  4.717778 39.805657  1
33.241176  5.612218 39.451772  1
32.553152  6.322273 39.301986  1
31.591720  6.137896 39.506083  1
30.903694  6.847960 39.356294  1
29.942262  6.663584 39.560390  1
29.254238  7.373639 39.410604  1
28.292807  7.189262 39.614701  1
27.604780  7.899326 39.464912  1
26.643349  7.714950 39.669008  1
25.955325  8.425005 39.519223  1
24.993894  8.240628 39.723319  1
24.305867  8.950692 39.573530  1
23.344436  8.766316 39.777626  1
22.656412  9.476371 39.627841  1
21.694980  9.291994 39.831937  1
21.006954  10.002058 39.682148  1
20.045523  9.817682 39.886245  1
19.357498  10.527737 39.736459  1
18.396067  10.343360 39.940555  1
17.708041  11.053424 39.790766  1
16.746609  10.869048 39.994863  1
2.761883  23.319535 34.508973  1
2.561589  22.814088 33.669684  1
2.496920  21.816397 33.690216  1
2.632544  21.324144 34.550043  1
2.567875  20.326445 34.570580  1
2.703499  19.834201 35.430402  1
2.638829  18.836502 35.450939  1
2.774453  18.344258 36.310760  1
2.709784  17.346559 36.331298  1
2.845408  16.854315 37.191119  1
2.780739  15.856615 37.211657  1
2.916362  15.364371 38.071478  1
2.851693  14.366672 38.092016  1
2.987317  13.874428 38.951837  1
2.922648  12.876729 38.972374  1
3.058272  12.384485 39.832196  1
2.993602  11.386785 39.852733  1
0.141285  27.420095 34.644216  1
-0.000014  26.864658 33.824750  1
0.166345  25.879031 33.853974  1
0.474006  25.448832 34.702668  1
0.640367  24.463197 34.731897  1
0.948025  24.033006 35.580586  1
1.114386  23.047371 35.609815  1
1.422044  22.617180 36.458504  1
1.588406  21.631545 36.487733  1
1.896063  21.201355 37.336422  1
2.062425  20.215719 37.365651  1
2.370083  19.785529 38.214340  1
2.536444  18.799893 38.243569  1
2.844102  18.369703 39.092258  1
3.010463  17.384067 39.121487  1
3.318121  16.953877 39.970176  1
3.484483  15.968241 39.999405  1
38.884369  16.974485 38.329868  1
38.660101  16.002238 38.396501  1
37.705912  15.705466 38.358539  1
36.975982  16.380943 38.253944  1
36.021784  16.084173 38.215982  1
35.291863  16.759648 38.111387  1
34.337664  16.462878 38.073425  1
33.607744  17.138353 37.968831  1
32.653545  16.841584 37.930869  1
31.923625  17.517058 37.826274  1
30.969426  17.220289 37.788312  1
30.239505  17.895764 37.683718  1
29.285307  17.598994 37.645755  1
28.555386  18.274469 37.541161  1
27.601188  17.977699 37.503199  1
26.871267  18.653174 37.398605  1
25.917069  18.356404 37.360642  1
35.146229  9.234176 39.998566  1
34.318019  8.673759 39.998708  1
33.418581  9.110797 39.998397  1
33.347349  10.108261 39.997944  1
32.447905  10.545308 39.997634  1
32.376679  11.542763 39.997181  1
31.477235  11.979810 39.996870  1
31.406009  12.977265 39.996418  1
30.506566  13.414312 39.996107  1
30.435339  14.411767 39.995654  1
29.535896  14.848814 39.995344  1
29.464669  15.846270 39.994891  1
28.565226  16.283316 39.994580  1
28.493999  17.280772 39.994128  1
27.594556  17.717818 39.993817  1
27.523329  18.715274 39.993364  1
26.623886  19.152321 39.993054  1
6.612384  4.438705 22.154964  1
6.613137  3.685796 23.456674  1
5.402008  3.486889 24.124453  1
5.409611  2.786033 25.314407  1
6.520729  2.270938 25.876750  3
7.690493  2.450910 25.240620  1
8.835003  1.902778 25.804564  1
10.089397  2.032334 25.204490  1
10.212798  2.740008 24.017970  1
9.080371  3.305261 23.432826  1
7.802257  3.162039 24.023300  1
5.597884  4.722365 21.854645  4
7.025024  3.815506 21.354991  4
7.199734  5.358019 22.245721  4
4.465438  3.864175 23.727852  4
4.489909  2.608593 25.864489  4
8.744830  1.350700 26.737165  4
10.961621  1.578935 25.667766  4
11.184749  2.849774 23.544204  4
9.204337  3.856199 22.504299  4
3.120514  6.214017 32.260988  1
3.746082  5.474696 33.411375  1
5.078517  5.066566 33.309527  1
5.648797  4.396713 34.374105  1
4.998202  4.112929 35.519672  3
3.718087  4.505654 35.631348  1
3.050193  4.235397 36.818472  1
1.722762  4.617999 37.023222  1
1.034175  5.274312 36.013786  1
1.679333  5.553493 34.809574  1
3.030281  5.187362 34.600687  1
3.840142  6.384162 31.452872  4
2.763264  7.195540 32.588995  4
2.286898  5.638577 31.845885  4
5.668560  5.267948 32.421780  4
6.681855  4.063152 34.335939  4
3.583831  3.717064 37.611710  4
1.235813  4.401261 37.970257  4
-0.000164  5.573598 36.161301  4
1.117095  6.067056 34.034201  4
6.148534  12.350146 29.697082  1
7.088261  11.738808 28.694833  1
7.265681  12.369467 27.460686  1
8.137792  11.807181 26.549366  1
8.840858  10.680381 26.777736  3
8.682789  10.068306 27.963391  1
9.421903  8.919307 28.212177  1
9.327340  8.227153 29.421458  1
8.462080  8.680783 30.406041  1
7.704087  9.829169 30.180315  1
7.808256  10.548203 28.965866  1
5.722757  13.289740 29.328648  4
6.679739  12.577513 30.626991  4
5.316991  11.669231 29.905039  4
6.740853  13.285001 27.209383  4
8.305057  12.266180 25.579176  4
10.098591  8.556555 27.442003  4
9.930817  7.338559 29.586346  4
8.378237  8.147881 31.349533  4
7.032504  10.162576 30.967004  4
2.274528  2.232216 24.569982  1
2.587243  2.013631 26.024544  1
3.454250  0.978002 26.382454  1
3.744178  0.789807 27.719530  1
3.244132  1.552061 28.712030  3
2.413802  2.554706 28.379382  1
1.913603  3.357009 29.396484  1
1.054168  4.427182 29.138647  1
0.668240  4.698630 27.834332  1
1.151564  3.905396 26.794393  1
2.038605  2.831381 27.044187  1
2.826910  1.535324 23.930387  4
2.559604  3.245143 24.267797  4
1.207088  2.078558 24.382048  4
3.902887  0.329150 25.637796  4
4.413982  -0.003015 28.040035  4
2.209305  3.145978 30.421516  4
0.692481  5.041961 29.958524  4
-0.002813  5.526958 27.622784  4
0.832606  4.137948 25.781848  4
15.329235  6.517485 26.134154  1
14.282824  6.877466 25.115940  1
14.585507  7.833552 24.143002  1
13.622644  8.151617 23.205463  1
12.398543  7.589479 23.164108  3
12.098179  6.664464 24.091215  1
10.846149  6.066047 24.039234  1
10.456032  5.087675 24.956281  1
11.329136  4.703819 25.963358  1
12.590703  5.292532 26.041861  1
13.001995  6.270219 25.104997  1
16.267413  7.053390 25.953895  4
15.553191  5.446863 26.087068  4
14.987471  6.778278 27.140902  4
15.553545  8.321857 24.107490  4
13.817756  8.888668 22.431762  4
10.155843  6.366401 23.254422  4
9.472833  4.631550 24.877278  4
11.034493  3.945761 26.684278  4
13.255157  4.975484 26.841264  4
5.739114  2.067239 29.913114  1
5.968627  1.564347 31.311594  1
7.274119  1.513275 31.806984  1
7.475774  1.059464 33.095641  1
6.483765  0.663623 33.917445  3
5.223587  0.713858 33.453950  1
4.195911  0.328277 34.304592  1
2.857175  0.360272 33.908179  1
2.531158  0.772501 32.624575  1
3.544042  1.160067 31.748130  1
4.901605  1.149913 32.147715  1
6.675002  2.385349 29.441113  4
5.071188  2.934602 29.925755  4
5.306059  1.278030 29.290243  4
8.122536  1.824502 31.206878  4
8.474553  1.005024 33.519202  4
4.446094  -0.000102 35.310694  4
2.077971  0.063513 34.605133  4
1.492811  0.798055 32.304618  4
3.262217  1.477138 30.747578  4
1.024887  3.497849 32.962619  1
2.356463  3.086001 33.527073  1
3.513632  3.340021 32.786289  1
4.733555  2.967636 33.315784  1
4.882577  2.373712 34.516275  3
3.777256  2.129697 35.240238  1
3.927422  1.538262 36.487651  1
2.833564  1.260018 37.310107  1
1.552333  1.563942 36.874287  1
1.372608  2.153491 35.623516  1
2.476603  2.457314 34.791870  1
1.136463  4.009960 32.000767  4
0.521739  4.192276 33.643220  4
0.392148  2.619761 32.798429  4
3.472875  3.823294 31.815935  4
5.656980  3.147843 32.772886  4
4.929367  1.293703 36.832559  4
2.989882  0.808265 38.286044  4
0.693760  1.348616 37.504905  4
0.358603  2.380001 35.304850  4
12.138105  9.044127 25.922327  1
10.838597  8.941831 25.172569  1
10.526483  9.917666 24.222486  1
9.335696  9.811407 23.531122  1
8.447955  8.813605 23.711229  3
8.740081  7.866212 24.618151  1
7.839046  6.823854 24.791386  1
8.069242  5.791977 25.703865  1
9.220338  5.804122 26.477617  1
10.139478  6.841897 26.327614  1
9.924172  7.880996 25.391310  1
12.731401  9.900679 25.584413  4
12.742908  8.146232 25.759227  4
11.951459  9.172872 26.993282  4
11.196644  10.745436 24.016378  4
9.055668  10.548159 22.783654  4
6.932665  6.811627 24.190564  4
7.347971  4.985256 25.803560  4
9.407799  5.007833 27.193140  4
11.032364  6.828968 26.947009  4
5.809793  7.440926 33.508384  1
6.245776  6.522630 34.616524  1
7.505512  5.922704 34.542499  1
7.902613  5.088341 35.568850  1
7.148023  4.816601 36.651848  3
5.937001  5.392458 36.736777  1
5.164834  5.133339 37.861500  1
3.899916  5.698995 38.035845  1
3.380672  6.533869 37.057463  1
4.132787  6.806684 35.915451  1
5.423638  6.253939 35.739594  1
6.594822  7.562665 32.754212  4
5.584637  8.435996 33.905557  4
4.926147  7.037198 33.003876  4
8.172225  6.101738 33.705695  4
8.874240  4.603025 35.550509  4
5.565109  4.475886 38.629745  4
3.329005  5.484057 38.935195  4
2.395952  6.976751 37.181453  4
3.702483  7.462419 35.163180  4
4.037972  10.000737 30.280969  1
5.028056  9.800235 29.167033  1
5.082997  10.738399 28.133033  1
6.001617  10.552464 27.118729  1
6.861837  9.516544 27.063727  3
6.822179  8.611075 28.055671  1
7.721727  7.553927 28.015222  1
7.756796  6.574917 29.010556  1
6.862134  6.639441 30.068514  1
5.944584  7.687536 30.130930  1
5.915109  8.694950 29.137454  1
3.474890  10.931997 30.156226  4
4.555827  10.061439 31.243646  4
3.316119  9.178042 30.302367  4
4.428300  11.603172 28.114569  4
6.077485  11.258723 26.296920  4
8.422528  7.495862 27.185661  4
8.483306  5.768792 28.952976  4
6.878533  5.880994 30.846769  4
5.253391  7.714095 30.969148  4
1.176061  7.359853 29.669017  1
1.910403  8.339402 28.795776  1
1.819735  9.703613 29.083930  1
2.504892  10.596193 28.283237  1
3.268223  10.232512 27.233859  3
3.367611  8.922801 26.950703  1
4.170917  8.541365 25.884125  1
4.339300  7.201536 25.527918  1
3.678376  6.213197 26.242219  1
2.861236  6.568881 27.314631  1
2.700530  7.922421 27.695223  1
0.660898  7.863646 30.494042  4
1.877414  6.645723 30.112557  4
0.421100  6.821532 29.087124  4
1.231753  10.070596 29.918437  4
2.461774  11.664781 28.473469  4
4.687973  9.312419 25.317738  4
4.986225  6.938964 24.695142  4
3.799712  5.167655 25.971460  4
2.353255  5.775713 27.856758  4
8.708778  29.433515 33.931274  1
10.047153  30.077046 34.106903  1
11.067144  29.312410 34.581673  3
12.290868  29.857757 34.753847  1
12.614380  31.176315 34.480349  1
11.580694  31.986111 33.989601  1
11.493744  33.359453 33.593941  1
12.413589  34.427421 33.544584  1
11.988293  35.682072 33.092244  1
10.669328  35.882786 32.692240  1
9.738574  34.840817 32.731224  1
10.181604  33.593459 33.186570  1
9.498663  32.409607 33.329445  3
8.522035  32.286025 33.107199  4
10.320168  31.417826 33.813999  1
8.738383  28.379869 34.225432  4
8.399311  29.489598 32.883152  4
7.962913  29.942512 34.549433  4
13.044023  29.174199 35.136632  4
13.615971  31.554968 34.639673  4
13.444048  34.281207 33.854193  4
12.695854  36.506691 33.053482  4
10.357716  36.864934 32.343729  4
8.711863  35.001457 32.419094  4
24.067100  27.538119 38.467520  1
23.134645  28.693735 38.644454  1
21.877630  28.437811 39.097082  3
21.006373  29.455462 39.269841  1
21.287301  30.788052 39.018168  1
22.576460  31.079040 38.550724  1
23.253012  32.285526 38.180797  1
22.884595  33.646418 38.144062  1
23.816228  34.600676 37.718519  1
25.098708  34.217967 37.332852  1
25.488602  32.876052 37.360580  1
24.543868  31.935912 37.788519  1
24.647187  30.571464 37.914748  3
25.478302  30.041575 37.698105  4
23.471089  30.024869 38.374444  1
23.581465  26.596536 38.741668  4
24.950036  27.667096 39.100974  4
24.386413  27.469249 37.423102  4
20.026472  29.158782 39.634251  4
20.544715  31.559662 39.176700  4
21.887267  33.955015 38.442703  4
23.534163  35.650312 37.689433  4
25.808684  34.974087 37.005144  4
26.488562  32.582031 37.058923  4
16.415718  30.458455 34.933366  1
16.617328  30.992314 36.315601  1
16.439033  30.141710 37.362091  3
16.612085  30.586700 38.625651  1
16.968449  31.880959 38.966173  1
17.158487  32.777946 37.905791  1
17.519522  34.161099 37.823844  1
17.823670  35.154882 38.777258  1
18.145690  36.447159 38.346029  1
18.167949  36.757545 36.988412  1
17.870858  35.790722 36.023781  1
17.550853  34.504276 36.473411  1
17.221606  33.374759 35.763401  3
17.166098  33.331865 34.756650  4
16.978525  32.313024 36.604188  1
16.137551  29.400350 34.958103  4
17.338390  30.558225 34.353541  4
15.617872  31.012284 34.429156  4
16.449063  29.839440 39.397690  4
17.092170  32.177343 40.000000  4
17.809103  34.923006 39.837967  4
18.380421  37.214719 39.079443  4
18.420526  37.767382 36.672799  4
17.888930  36.036733 34.967126  4
26.006730  28.427144 35.492190  1
24.816001  29.307469 35.700560  1
23.640353  28.720486 36.052355  3
22.542479  29.482276 36.249580  1
22.503182  30.860687 36.121144  1
23.702133  31.490559 35.759363  1
24.081798  32.851641 35.528093  1
23.397174  34.083785 35.575179  1
24.087426  35.266507 35.284736  1
25.439353  35.235770 34.951111  1
26.140587  34.027895 34.897892  1
25.434122  32.855501 35.191006  1
25.858868  31.548870 35.216130  3
26.801742  31.253300 35.010956  4
24.831640  30.699314 35.557231  1
25.752110  27.376288 35.660845  4
26.805017  28.703689 36.187702  4
26.376597  28.531408 34.467573  4
21.649018  28.929657 36.527713  4
21.590123  31.416338 36.292970  4
22.343237  34.118426 35.834216  4
23.561442  36.217406 35.320434  4
25.958534  36.165359 34.728642  4
27.193677  34.008251 34.637159  4
9.839740  38.394582 39.109827  1
11.254820  37.912430 39.145945  1
12.247688  38.842288 39.140163  3
13.538585  38.445918 39.172144  1
13.959931  37.127225 39.211777  1
12.956082  36.148782 39.218681  1
12.960680  34.717376 39.253748  1
13.975881  33.739241 39.295278  1
13.625663  32.384164 39.322692  1
12.288006  31.996283 39.309379  1
11.263295  32.945937 39.268809  1
11.632258  34.295988 39.241520  1
10.851872  35.426308 39.200274  3
9.842842  35.420461 39.183194  4
11.625910  36.563824 39.185588  1
9.798273  39.487782 39.082097  4
9.303139  38.052344 40.000000  4
9.333625  38.008362 38.219774  4
14.263579  39.255454 39.164806  4
15.011889  36.872788 39.236143  4
15.021662  34.031320 39.305981  4
14.406799  31.628554 39.354672  4
12.035689  30.938436 39.331138  4
10.222435  32.639565 39.258153  4
2.420679  34.068124 39.057075  1
3.597156  33.153161 38.934721  1
3.404882  31.828313 39.176104  3
4.443212  30.970223 39.075609  1
5.736584  31.330572 38.735913  1
5.961700  32.690679 38.481863  1
7.113038  33.457672 38.112652  1
8.464429  33.141694 37.861635  1
9.356486  34.162056 37.511304  1
8.921411  35.481234 37.409149  1
7.587494  35.820380 37.652390  1
6.709988  34.787212 38.001764  1
5.367480  34.826332 38.292402  3
4.809172  35.667016 38.289333  4
4.886469  33.571312 38.587099  1
1.520251  33.513901 39.339283  4
2.232032  34.567705 38.101928  4
2.612132  34.826296 39.822603  4
4.198025  29.932503 39.285468  4
6.527699  30.594389 38.671723  4
8.813528  32.116371 37.938599  4
10.398711  33.920550 37.317436  4
9.629564  36.260285 37.135695  4
7.252682  36.849372 37.572123  4
23.969868  38.262525 33.469776  1
22.896615  38.058987 32.448538  1
22.516633  39.128149 31.698229  3
21.550419  38.983992 30.765386  1
20.885194  37.800308 30.492579  1
21.258191  36.682688 31.252124  1
20.833996  35.315568 31.286986  1
19.878114  34.565298 30.571101  1
19.710123  33.206545 30.862998  1
20.476564  32.592637 31.850745  1
21.430614  33.313851 32.574043  1
21.584571  34.671291 32.268803  1
22.430656  35.609694 32.809050  3
23.093154  35.420647 33.546495  4
22.255762  36.837544 32.213156  1
24.318619  39.299803 33.471094  4
24.823285  37.612833 33.252858  4
23.588580  38.026437 34.467972  4
21.311420  39.889441 30.213970  4
20.117984  37.748366 29.730582  4
19.275639  35.034575 29.799164  4
18.973716  32.626408 30.312281  4
20.331543  31.535753 32.063211  4
22.025383  32.831908 33.343034  4
20.244076  38.691795 26.855037  1
20.195497  37.197384 26.879601  1
19.291179  36.573579 26.077396  3
19.217101  35.224866 26.071645  1
20.009061  34.386327 26.838266  1
20.949744  35.004197 27.674006  1
21.930674  34.520474 28.598108  1
22.329743  33.236610 29.024186  1
23.353647  33.112650 29.970701  1
23.978587  34.242738 30.492534  1
23.601904  35.525996 30.086480  1
22.576201  35.630634 29.139643  1
22.009729  36.744285 28.567613  3
22.284369  37.692774 28.775961  4
21.021555  36.396157 27.675643  1
19.504889  39.096995 26.157190  4
21.235989  39.030565 26.540682  4
20.031736  39.091227 27.851469  4
18.467240  34.813081 25.401450  4
19.901634  33.310220 26.789281  4