NumberOfAtoms 3640
SpinPolarized yes
#FixSpin .true.
#TotalSpin 
NumberOfSpecies 4

 


%block ChemicalSpeciesLabel
1  6  C
2  1  H
3  7  N
4  8  O
%endblock ChemicalSpeciesLabel

PAO.BasisSize szp 
 PAO.EnergyShift 0.02 Ry 
 
MeshCutoff          100 Ry
MaxSCFIterations    100  
DM.NumberPulay       3  
DM.Tolerance         1e-3
WriteDenchar	.true.

%block ProjectedDensityOfStates
-10.0 10.0 0.200 500 eV
%endblock ProjectedDensityOfStates
NetCharge 0.00

%block BandLines
1  1.000  1.000 1.000  L
20 0.00   0.00   0.00  \Gamma
25 2.00   0.000  0.00  X
30 2.00   2.00   2.00  \Gamma
%endblock BandLines


LongOutput .true.
WriteCoorXmol .true.
LatticeConstant 1 Ang
%block LatticeVectors
  63.270553 0.0 0.0
  0.0 58.026663 0.0
  0.0 0.0 77.519603
%endblock LatticeVectors


 

#UseSaveData .true.  
%block kgrid_Monkhorst_Pack
1 0 0 0.0 
 0 1 0 0.0 
 0 0 1 0.0 

%endblock kgrid_Monkhorst_Pack
WriteMDXmol .true.
AtomicCoordinatesFormat Ang
%block AtomicCoordinatesAndAtomicSpecies
42.151348  7.452123 32.783309  1 
41.190305  8.101545 33.716389  1 
41.188880  8.026845 35.057402  1 
42.177462  7.206931 35.857963  1 
40.147221  8.725634 35.883145  1 
39.834341  10.198365 35.579934  1 
38.916991  10.858388 36.628228  1 
39.520421  11.178622 38.028479  1 
38.412969  11.747344 38.920433  1 
40.221580  9.992617 38.717786  1 
40.690612  10.215921 40.168160  1 
41.354424  8.924773 40.669566  1 
41.918764  8.982388 42.102062  1 
40.810916  9.214683 43.133764  1 
42.801486  7.759083 42.480753  1 
42.145024  6.362129 42.519741  1 
41.720215  5.812663 41.157036  1 
40.917460  4.503714 41.170728  1 
39.670035  4.602860 42.053514  1 
40.492625  4.180168 39.731031  1 
42.352339  8.118329 31.940080  2 
41.717470  6.524369 32.401072  2 
43.107132  7.230040 33.257381  2 
40.408098  8.690144 33.227917  2 
42.572828  6.357862 35.294622  2 
41.710567  6.786121 36.754555  2 
43.017667  7.836609 36.177133  2 
40.531196  8.648745 36.886083  2 
39.221446  8.137238 35.897786  2 
39.315254  10.250848 34.612901  2 
40.752090  10.787425 35.471681  2 
38.004378  10.258594 36.731970  2 
38.587231  11.817734 36.198929  2 
40.268636  11.968473 37.883940  2 
37.677715  10.980525 39.177661  2 
37.889017  12.571238 38.419431  2 
38.828632  12.151533 39.848074  2 
41.155633  9.807455 38.177227  2 
39.581609  9.111352 38.685294  2 
39.825824  10.440573 40.803411  2 
41.387804  11.058424 40.220844  2 
42.135273  8.609343 39.974416  2 
40.536490  8.206826 40.645324  2 
42.591272  9.853773 42.138919  2 
40.823431  8.472612 43.937366  2 
39.812685  9.191032 42.687102  2 
40.939183  10.197029 43.601665  2 
43.198212  7.951766 43.487595  2 
43.680825  7.726360 41.824803  2 
41.304163  6.380726 43.218034  2 
42.877049  5.662337 42.946101  2 
42.601193  5.718337 40.512711  2 
41.064332  6.507837 40.654633  2 
41.556300  3.690942 41.536154  2 
39.916535  4.381011 43.096893  2 
38.897818  3.890996 41.739380  2 
39.225601  5.604759 42.018989  2 
39.767440  4.921204 39.357314  2 
40.020308  3.198243 39.680592  2 
41.349875  4.182428 39.053250  2 
46.206586  12.215524 32.581692  1 
45.519784  12.116579 33.898697  1 
45.684409  11.159970 34.826973  1 
46.598648  9.966140 34.655543  1 
44.914098  11.173728 36.116020  1 
44.847318  12.481142 36.919123  1 
44.220496  12.310360 38.316983  1 
45.056084  11.574981 39.407117  1 
44.206088  11.451496 40.675082  1 
45.606608  10.200114 38.982808  1 
46.299875  9.366256 40.077112  1 
46.768961  8.041942 39.456413  1 
47.521227  7.092901 40.408915  1 
46.626042  6.627010 41.560994  1 
48.199595  5.890103 39.693252  1 
47.302274  4.865380 38.966133  1 
46.602166  5.397165 37.714576  1 
45.575770  4.461856 37.059091  1 
44.499648  4.004805 38.048169  1 
44.907987  5.212261 35.897690  1 
46.414730  13.264259 32.353453  2 
45.557869  11.809242 31.801189  2 
47.158039  11.684387 32.566869  2 
44.804505  12.919306 34.100953  2 
46.747124  9.697720 33.606499  2 
46.185386  9.076243 35.141596  2 
47.577822  10.174085 35.105304  2 
45.407797  10.423255 36.709557  2 
43.904325  10.776199 35.955357  2 
44.222398  13.196295 36.366502  2 
45.836835  12.942500 37.013881  2 
43.233342  11.843847 38.210834  2 
44.023346  13.324217 38.699879  2 
45.913757  12.217620 39.643753  2 
43.380512  10.749456 40.532459  2 
43.784808  12.423350 40.962054  2 
44.811407  11.105352 41.517955  2 
46.407611  10.379443 38.258116  2 
44.813176  9.603486 38.533641  2 
45.586431  9.148927 40.880627  2 
47.144355  9.917781 40.502948  2 
47.375552  8.236743 38.569534  2 
45.834387  7.569406 39.159206  2 
48.345028  7.677648 40.847504  2 
46.605928  5.538068 41.662984  2 
45.590545  6.960376 41.446351  2 
46.999298  7.031504 42.508335  2 
48.757164  5.335460 40.461196  2 
48.960682  6.262364 38.995580  2 
46.581635  4.452271 39.676785  2 
47.939382  4.024825 38.658055  2 
47.354768  5.716029 36.985132  2 
46.028038  6.281573 37.947077  2 
46.092698  3.583540 36.654621  2 
44.837657  3.127044 38.608440  2 
43.571755  3.729329 37.533505  2 
44.252015  4.790508 38.771952  2 
44.292397  6.047542 36.269236  2 
44.256210  4.544862 35.332386  2 
45.651266  5.626155 35.211761  2 
7.990833  25.520744 1.353118  1 
6.759971  25.199234 2.126165  1 
6.659111  24.371239 3.178852  1 
7.817110  23.574451 3.739760  1 
5.345263  24.125498 3.863414  1 
4.474637  25.333444 4.239770  1 
3.267512  24.966644 5.125428  1 
3.541048  24.583695 6.610658  1 
2.215927  24.181233 7.264536  1 
4.604103  23.486826 6.811083  1 
4.792120  22.961614 8.247133  1 
5.883925  21.881412 8.231565  1 
6.229211  21.267789 9.601998  1 
5.031233  20.527826 10.204493  1 
7.502095  20.374100 9.589046  1 
7.491917  19.091765 8.729129  1 
7.472088  19.330320 7.218487  1 
7.295432  18.086893 6.334953  1 
6.041887  17.289832 6.707146  1 
7.188315  18.542322 4.872419  1 
7.975045  26.573242 1.057720  2 
8.025808  24.904221 0.451032  2 
8.900295  25.358783 1.931248  2 
5.854797  25.700428 1.770684  2 
8.585126  23.365160 2.990804  2 
7.484765  22.600884 4.114813  2 
8.280045  24.118517 4.572822  2 
5.626138  23.603033 4.761954  2 
4.755196  23.396104 3.294828  2 
4.078559  25.777028 3.315804  2 
5.066321  26.114779 4.730078  2 
2.685408  24.181204 4.627818  2 
2.609344  25.849768 5.142480  2 
3.899035  25.489629 7.116336  2 
1.848973  23.231951 6.865806  2 
1.446331  24.945128 7.095664  2 
2.330922  24.078950 8.347576  2 
5.577515  23.929678 6.575933  2 
4.399437  22.644475 6.150928  2 
3.855406  22.514835 8.600441  2 
5.062717  23.779514 8.922767  2 
6.788817  22.268634 7.758613  2 
5.449329  21.106966 7.601954  2 
6.466961  22.109619 10.271130  2 
5.275402  19.502698 10.497915  2 
4.183882  20.473811 9.514849  2 
4.689186  21.047275 11.106471  2 
7.681003  20.059131 10.626849  2 
8.373440  20.983705 9.317539  2 
6.657090  18.458313 9.040270  2 
8.404515  18.526578 8.963823  2 
8.369622  19.886650 6.926765  2 
6.637567  19.957985 6.943771  2 
8.177281  17.443067 6.435366  2 
6.255563  16.593062 7.524136  2 
5.674297  16.699994 5.859373  2 
5.223837  17.945042 7.029649  2 
6.259447  19.110784 4.702869  2 
7.178935  17.682497 4.201286  2 
8.027180  19.184730 4.593338  2 
43.310405  0.143374 10.548537  1 
42.924441  0.000514 9.637147  1 
43.079286  0.676781 8.916955  1 
43.620093  1.495911 9.108144  1 
43.774936  2.172182 8.387942  1 
44.315743  2.991312 8.579131  1 
44.470588  3.667580 7.858939  1 
45.011395  4.486710 8.050127  1 
45.166238  5.162981 7.329926  1 
45.707045  5.982111 7.521114  1 
45.861890  6.658378 6.800922  1 
46.402697  7.477509 6.992110  1 
46.557540  8.153779 6.271909  1 
47.098347  8.972910 6.463097  1 
47.253192  9.649177 5.742905  1 
47.793998  10.468308 5.934094  1 
47.948842  11.144578 5.213892  1 
48.489649  11.963709 5.405081  1 
48.644493  12.639976 4.684889  1 
49.185300  13.459107 4.876077  1 
49.340144  14.135377 4.155876  1 
49.880950  14.954507 4.347064  1 
0.271388  50.000000 0.293543  1 
-0.000000  49.181082 0.799232  1 
0.678114  48.478014 1.013350  1 
1.627627  48.593860 0.721779  1 
2.305750  47.890789 0.935897  1 
3.255253  48.006638 0.644326  1 
3.933377  47.303567 0.858443  1 
4.882880  47.419417 0.566872  1 
5.561004  46.716345 0.780990  1 
6.510507  46.832195 0.489419  1 
7.188631  46.129123 0.703537  1 
8.138134  46.244973 0.411966  1 
8.816258  45.541902 0.626083  1 
9.765760  45.657752 0.334512  1 
10.443884  44.954680 0.548630  1 
11.393387  45.070530 0.257059  1 
12.071511  44.367458 0.471177  1 
36.655468  3.376485 1.776239  1 
36.868353  4.209232 2.287328  1 
37.771422  4.324950 2.700929  1 
38.461617  3.607917 2.603442  1 
39.364695  3.723632 3.017044  1 
40.054881  3.006602 2.919555  1 
40.957959  3.122317 3.333157  1 
41.648145  2.405288 3.235668  1 
42.551223  2.521002 3.649270  1 
43.241408  1.803973 3.551781  1 
44.144487  1.919687 3.965384  1 
44.834672  1.202658 3.867895  1 
45.737751  1.318372 4.281497  1 
46.427936  0.601343 4.184008  1 
47.331015  0.717057 4.597610  1 
48.021200  0.000028 4.500121  1 
48.924279  0.115742 4.913724  1 
11.037719  29.243408 36.449677  1 
12.519382  29.068563 36.637895  1 
13.326268  30.203791 36.749779  1 
14.684735  30.034909 36.932245  1 
15.288629  28.833062 37.015969  3 
14.521976  27.734169 36.915588  1 
15.136410  26.493535 37.023677  1 
14.413648  25.301311 36.942452  1 
13.043238  25.342468 36.732346  1 
12.401708  26.574922 36.614909  1 
13.122956  27.788327 36.715897  1 
10.752470  30.300930 36.461812  2 
10.490716  28.750729 37.260023  2 
10.723750  28.827124 35.487136  2 
12.909848  31.204321 36.701452  2 
15.346965  30.890951 37.024822  2 
16.211350  26.455220 37.183989  2 
14.926086  24.348442 37.044520  2 
12.471599  24.420633 36.664231  2 
11.327707  26.579675 36.448888  2 
44.973075  1.900795 47.503070  1 
46.323931  2.520159 47.669817  1 
47.305679  1.769964 48.238881  3 
48.539179  2.294333 48.406401  1 
48.909959  3.576597 48.037108  1 
47.916361  4.370834 47.447990  1 
47.882439  5.708707 46.938954  1 
48.834671  6.743676 46.833111  1 
48.460932  7.967789 46.266099  1 
47.161439  8.170450 45.807619  1 
46.199400  7.160822 45.900647  1 
46.590980  5.943743 46.470645  1 
45.869118  4.794630 46.686938  3 
44.896551  4.679615 46.443311  2 
46.645516  3.824327 47.277709  1 
44.962320  0.874589 47.883020  2 
44.697803  1.878587 46.444199  2 
44.223988  2.479048 48.052619  2 
49.259573  1.624545 48.868391  2 
49.916976  3.939853 48.198074  2 
49.850321  6.595661 47.187552  2 
49.193523  8.766946 46.183636  2 
46.889995  9.128577 45.370026  2 
45.188000  7.322898 45.542642  2 
2.277232  8.076904 45.959838  1 
2.199062  7.175765 44.764862  1 
2.295169  5.800039 44.903306  1 
2.074617  4.982450 43.790288  1 
2.104631  3.583956 43.930504  1 
1.783259  2.742450 42.853634  1 
1.729354  1.350323 42.966954  1 
1.379895  0.511718 41.962891  3 
1.080881  1.082748 40.780684  1 
1.128329  2.447270 40.548117  1 
1.479515  3.300755 41.602985  1 
1.505670  4.700390 41.451322  1 
1.783809  5.567821 42.539810  1 
1.768703  6.980996 42.483088  1 
1.452252  7.756896 41.238116  1 
1.957700  7.766418 43.576860  3 
2.555718  7.529734 46.865821  2 
1.298252  8.537976 46.128917  2 
3.016557  8.865418 45.793189  2 
2.495680  5.366750 45.878477  2 
2.339407  3.143937 44.895755  2 
1.955356  0.853434 43.906444  2 
0.785475  0.393493 39.994177  2 
0.874256  2.835458 39.566866  2 
1.273518  5.111036 40.474204  2 
1.564691  7.180010 40.318554  2 
2.131026  8.613291 41.155700  2 
0.425610  8.133770 41.292632  2 
5.162245  34.374871 47.346009  1 
4.689619  35.773962 47.090010  1 
5.538352  36.739067 46.567495  1 
5.073590  38.054382 46.332799  1 
5.876564  39.106327 45.798020  1 
7.204450  38.895566 45.465318  4 
5.397625  40.411495 45.569646  1 
6.207018  41.369480 45.058382  3 
5.714256  42.605242 44.853358  1 
4.414952  42.964825 45.135911  1 
3.560835  41.996874 45.663546  1 
2.138550  42.382166 45.975102  1 
4.055903  40.685014 45.889094  1 
3.255488  39.649370 46.419154  1 
3.728833  38.337200 46.649541  1 
2.934105  37.290596 47.178386  1 
1.487461  37.438419 47.561788  1 
3.406656  36.036917 47.393572  3 
6.212519  34.242098 47.069365  2 
4.563630  33.668713 46.762223  2 
5.056117  34.136288 48.408836  2 
6.558389  36.445610 46.349815  2 
7.474427  37.988756 45.644729  2 
6.419577  43.320813 44.441284  2 
4.081804  43.979182 44.946467  2 
1.942038  43.432261 45.735260  2 
1.932885  42.246236 47.041938  2 
1.442710  41.776220 45.385557  2 
2.224549  39.885807 46.657834  2 
1.068095  38.430096 47.394016  2 
1.368635  37.209931 48.626093  2 
0.884750  36.729554 46.984331  2 
7.859811  1.086365 35.971446  1 
6.998761  1.515740 34.771049  1 
5.553468  1.069666 35.015279  1 
7.096741  3.040860 34.563735  1 
8.424415  3.614116 34.309225  3 
9.337687  3.484187 33.312677  1 
10.225136  4.341159 33.253017  4 
9.218949  2.390295 32.233393  1 
10.606967  1.762322 31.928480  1 
11.168747  1.062169 33.173361  1 
10.563914  0.746597 30.776339  1 
8.665972  3.064629 31.059805  3 
7.352499  3.292752 30.759856  1 
7.087310  4.172688 29.944896  4 
6.241783  2.513247 31.503612  1 
5.143594  2.077011 30.492789  1 
5.699117  1.113704 29.438286  1 
3.946628  1.413004 31.185599  1 
5.681182  3.459180 32.468326  3 
6.041550  3.797045 33.728627  1 
5.542405  4.834440 34.182180  4 
7.809312  0.002315 36.119786  2 
7.518175  1.564337 36.896924  2 
8.911563  1.350452 35.821956  2 
7.360481  0.956934 33.910923  2 
5.105095  1.607848 35.856758  2 
5.510927  -0.002162 35.238135  2 
4.933241  1.240500 34.131380  2 
6.882780  3.433416 35.572944  2 
8.611367  4.462659 34.836406  2 
8.553599  1.599949 32.547330  2 
11.312299  2.552459 31.640022  2 
10.540156  0.215704 33.471181  2 
11.239997  1.748201 34.022324  2 
12.177218  0.680837 32.978859  2 
9.779384  -0.003427 30.923852  2 
11.519310  0.213282 30.694807  2 
10.390597  1.241001 29.815329  2 
9.269904  3.751838 30.616233  2 
6.625885  1.637497 32.017341  2 
4.762491  2.962845 29.966227  2 
6.061841  0.188798 29.898465  2 
6.523015  1.562528 28.875615  2 
4.920588  0.848119 28.714141  2 
4.260112  0.551821 31.784480  2 
3.219455  1.058955 30.445589  2 
3.423069  2.116335 31.840864  2 
5.111163  4.195509 32.060995  2 
19.362893  4.198430 28.086872  1 
19.656879  4.551569 29.555064  1 
19.019493  5.907870 29.873949  1 
19.128708  3.441153 30.485969  1 
19.658681  2.083984 30.303380  3 
20.887439  1.520816 30.433969  1 
20.932872  0.288312 30.500260  4 
22.161452  2.370909 30.606547  1 
23.330654  1.791117 29.763500  1 
22.994441  1.840804 28.266827  1 
24.656755  2.533633 29.989564  1 
22.460792  2.331374 32.037159  3 
21.968970  3.138918 33.023671  1 
22.035139  2.743473 34.184713  4 
21.272183  4.471323 32.658052  1 
21.728319  5.586159 33.641498  1 
23.233054  5.854404 33.530321  1 
20.974583  6.903383 33.416949  1 
19.840492  4.219991 32.821844  3 
18.903944  3.707318 31.989726  1 
17.838927  3.356234 32.512722  4 
19.746429  4.973718 27.414899  2 
18.285200  4.107533 27.907999  2 
19.834529  3.252369 27.802620  2 
20.733626  4.682057 29.635754  2 
17.926484  5.855012 29.837878  2 
19.345189  6.667889 29.155213  2 
19.311750  6.257116 30.867809  2 
18.088245  3.314153 30.140009  2 
18.945910  1.359926 30.327749  2 
21.996837  3.391963 30.296313  2 
23.494807  0.740638 30.036563  2 
22.885657  2.873602 27.917795  2 
22.065366  1.307459 28.045876  2 
23.787946  1.367963 27.677735  2 
24.542162  3.616625 29.872172  2 
25.413901  2.201696 29.268176  2 
25.058636  2.336684 30.988421  2 
22.743146  1.427553 32.407467  2 
21.484057  4.781572 31.639600  2 
21.522605  5.267021 34.672537  2 
23.498537  6.214642 32.531055  2 
23.819904  4.954626 33.737341  2 
23.541204  6.615010 34.256648  2 
21.083236  7.253969 32.385518  2 
21.360569  7.687169 34.079096  2 
19.907099  6.795356 33.633677  2 
19.529780  4.139145 33.786179  2 
9.159523  5.959028 28.579172  1 
9.783123  7.021439 29.500655  1 
8.768949  8.150755 29.709455  1 
10.207829  6.382810 30.838694  1 
11.186250  5.288741 30.796010  3 
12.485092  5.193277 30.411366  1 
13.107488  4.195328 30.788524  4 
13.192932  6.322673 29.637428  1 
14.088733  5.741533 28.508830  1 
13.237031  4.994988 27.473063  1 
14.907577  6.818664 27.780639  1 
13.985596  7.037268 30.636855  3 
13.587452  8.053767 31.458703  1 
14.253156  8.280989 32.465670  4 
12.281302  8.826775 31.157171  1 
12.508930  10.347374 31.389651  1 
13.562591  10.912359 30.430938  1 
11.216137  11.158877 31.235476  1 
11.298611  8.319683 32.114726  3 
10.464651  7.253797 32.086923  1 
9.957667  6.925936 33.166979  4 
8.866744  6.398433 27.619525  2 
8.262594  5.518748 29.030117  2 
9.865800  5.149350 28.369733  2 
10.624718  7.448905 28.960367  2 
7.895474  7.805529 30.272150  2 
8.418927  8.540344 28.747169  2 
9.216352  8.987190 30.252918  2 
9.295248  5.843419 31.146322  2 
10.948334  4.503722 31.396042  2 
12.479567  6.996831 29.187412  2 
14.801281  5.024990 28.937618  2 
12.549039  5.675377 26.959189  2 
12.646030  4.199936 27.936815  2 
13.874798  4.525638 26.715948  2 
14.278268  7.648463 27.441245  2 
15.402556  6.396880 26.896927  2 
15.694111  7.224653 28.424496  2 
14.763202  6.520814 31.039782  2 
11.932355  8.666582 30.141807  2 
12.871591  10.507558 32.414360  2 
13.241398  10.817283 29.388546  2 
14.523871  10.401845 30.541245  2 
13.736033  11.974948 30.635516  2 
10.760507  10.999875 30.252783  2 
11.418097  12.231172 31.341022  2 
10.482524  10.892132 32.002823  2 
11.443053  8.622589 33.074103  2 
8.018815  10.310935 23.040584  1 
8.871113  9.375575 22.602982  1 
9.632694  9.504442 21.290582  1 
10.184062  10.804700 20.708222  1 
9.188588  11.767346 20.295313  1 
8.232967  11.133170 19.345676  1 
7.100180  12.215814 19.110057  1 
6.348637  12.775193 20.677786  1 
7.010792  13.746792 21.679360  1 
7.793796  15.042288 21.298675  1 
8.952849  15.078321 20.253749  1 
8.689192  15.100490 18.713738  1 
8.014121  13.930978 18.090667  1 
6.159360  13.731568 18.594909  1 
5.115256  12.175312 18.821264  1 
3.963244  11.730934 19.789381  1 
3.574525  10.243878 19.638533  1 
8.875893  8.154733 23.301086  4 
10.002750  7.258761 23.210713  1 
11.022991  7.507874 24.371609  1 
10.727361  7.113562 25.825792  1 
9.588732  5.761334 23.140622  1 
8.892319  5.233059 21.957971  4 
9.532692  5.105200 20.746800  1 
10.533377  5.737733 20.442782  4 
8.777870  4.144676 19.789269  1 
9.396678  2.840156 19.180705  1 
10.567644  2.882155 18.168046  1 
11.024159  1.478457 17.672523  1 
12.205450  1.454094 16.666121  1 
13.573690  1.997864 17.094985  1 
13.747600  3.476709 17.562510  1 
13.553616  4.893526 16.971917  1 
12.694483  5.788278 16.407473  1 
11.291243  5.896474 15.788452  1 
10.173198  6.832312 16.400777  1 
8.880816  6.911937 15.504142  1 
7.776332  7.842093 16.041233  1 
6.472879  7.833097 15.209082  1 
5.315739  8.699692 15.739839  1 
4.716577  8.223055 17.062311  1 
5.625546  8.251304 18.276885  1 
7.858167  11.225666 22.512248  2 
7.379657  10.187539 23.904514  2 
8.985843  9.043334 20.536062  2 
10.547490  8.939435 21.328549  2 
10.697982  10.565684 19.767254  2 
10.881801  11.315962 21.366992  2 
9.712636  12.622412 19.883761  2 
8.681857  12.182550 21.143684  2 
7.652381  10.301047 19.751160  2 
8.649261  10.882121 18.353784  2 
6.831713  11.505191 18.151732  2 
6.992694  12.493530 17.914078  2 
5.943283  11.933175 21.228414  2 
5.379431  13.450131 20.532234  2 
7.639614  13.107860 22.257505  2 
6.220758  14.032551 22.422927  2 
8.269630  15.311824 22.254750  2 
7.108761  15.871206 21.074090  2 
9.705254  14.353745 20.572752  2 
9.481002  16.030473 20.397803  2 
9.660449  15.145521 18.183131  2 
8.014508  15.876831 18.429122  2 
8.761348  13.167496 18.385494  2 
8.114079  13.710734 17.024973  2 
5.524938  14.612082 18.320202  2 
6.643964  14.250106 19.554573  2 
5.676345  11.231278 19.348666  2 
5.040335  11.612505 17.879295  2 
3.201496  12.418065 19.523160  2 
4.145144  11.731661 20.876583  2 
3.144218  10.084909 18.656885  2 
2.863240  9.963338 20.417684  2 
4.403335  9.555435 19.813077  2 
10.551070  7.439300 22.295939  2 
11.295426  8.569551 24.377848  2 
11.930285  6.951823 24.104869  2 
9.786981  7.500804 26.225456  2 
11.528017  7.522109 26.463818  2 
10.755410  6.027665 25.971063  2 
8.928575  5.538801 23.986553  2 
10.488824  5.149310 23.261564  2 
8.350271  4.758436 18.988648  2 
7.912986  3.786634 20.368407  2 
8.568926  2.350470 18.646781  2 
9.674272  2.166132 19.997785  2 
11.398449  3.365894 18.664194  2 
10.295124  3.473129 17.289460  2 
10.174902  0.987103 17.169976  2 
11.262367  0.828364 18.525503  2 
11.918589  1.938134 15.730528  2 
12.362590  0.389144 16.405187  2 
14.316310  1.746592 16.318579  2 
13.903197  1.365762 17.943663  2 
14.827943  3.477687 17.818526  2 
13.304532  3.528855 18.555971  2 
14.493391  5.420159 17.218110  2 
13.166577  6.777276 16.303950  2 
10.879842  4.903379 15.615511  2 
11.477624  6.330794 14.792999  2 
10.547721  7.855757 16.544052  2 
9.892475  6.457309 17.392559  2 
8.455374  5.903237 15.428354  2 
9.126781  7.252396 14.496041  2 
8.120770  8.875852 16.151733  2 
7.604267  7.457809 17.029339  2 
6.099806  6.808443 15.089377  2 
6.715090  8.201309 14.205439  2 
4.498132  8.679100 14.997157  2 
5.613806  9.753513 15.801686  2 
4.317384  7.212367 16.946359  2 
3.849031  8.856224 17.267083  2 
6.454855  7.564945 18.271463  2 
5.081325  7.884135 19.147672  2 
6.026998  9.251910 18.448878  2 
22.654266  7.735724 20.832961  1 
22.527529  7.450970 19.530786  1 
23.716567  7.390833 18.581270  1 
25.110382  6.875578 18.935684  1 
25.838797  7.674698 19.894314  1 
25.906469  9.087713 19.429545  1 
26.558004  9.890109 20.630589  1 
25.642083  9.651315 22.192499  1 
25.699398  8.378963 23.066248  1 
26.992563  7.573842 23.406588  1 
28.009566  7.074220 22.332970  1 
29.080092  8.016058 21.693786  1 
28.616309  9.170416 20.878889  1 
27.737215  10.554051 21.902074  1 
26.328877  11.717480 21.426316  1 
25.098673  12.348343 22.168249  1 
24.143639  13.116736 21.228740  1 
21.217813  7.420996 19.019346  4 
20.923550  6.730659 17.787444  1 
20.462275  5.258919 18.055469  1 
19.091848  4.923379 18.661167  1 
19.898196  7.485087 16.894082  1 
20.257529  8.761828 16.258834  4 
21.178731  8.820349 15.238381  1 
22.023222  7.958909 15.041783  4 
21.077814  10.147759 14.440243  1 
20.781924  10.232580 12.903916  1 
21.782071  9.706219 11.845116  1 
21.305517  9.899944 10.375530  1 
22.259402  9.378325 9.267872  1 
22.592787  7.882947 9.201604  1 
23.269624  7.149698 10.401622  1 
24.592284  7.240901 11.199150  1 
25.413263  8.012562 11.965845  1 
25.640897  9.465571 12.414093  1 
25.586999  9.893202 13.935601  1 
26.018837  11.389875 14.168051  1 
26.018234  11.842793 15.640602  1 
26.342682  13.340471 15.848544  1 
26.293721  13.856712 17.298634  1 
24.901036  13.860617 17.927540  1 
24.231982  12.512592 18.120954  1 
23.606901  7.893724 21.290348  2 
21.817533  7.901618 21.498153  2 
23.821871  8.407693 18.187258  2 
23.504771  6.737875 17.752828  2 
25.737094  6.941723 18.035951  2 
25.117810  5.848203 19.291566  2 
26.809396  7.212511 20.033813  2 
25.396852  7.602372 20.868150  2 
24.943724  9.594971 19.330873  2 
26.541747  9.263484 18.543147  2 
26.723521  10.743994 19.770978  2 
27.581769  10.474643 20.271048  2 
24.604384  9.944337 22.074944  2 
25.992893  10.373727 23.070643  2 
24.990076  7.732639 22.600383  2 
25.188819  8.627961 24.033726  2 
26.579869  6.654542 23.851243  2 
27.560967  8.054542 24.214463  2 
27.456020  6.466227 21.614071  2 
28.644605  6.323328 22.822025  2 
29.693358  7.431523 20.980250  2 
29.659153  8.529227 22.428809  2 
28.053396  8.587807 20.122668  2 
29.259740  9.641248 20.131548  2 
28.386347  11.002662 22.696198  2 
27.488412  9.563987 22.520577  2 
25.440368  11.227929 20.751732  2 
26.620387  12.363112 20.584977  2 
25.587467  12.948710 22.892074  2 
24.352868  11.682966 22.633161  2 
24.657309  13.982114 20.827077  2 
23.249196  13.422495 21.774805  2 
23.733952  12.502977 20.424499  2 
21.815944  6.651474 17.181288  2 
21.216220  4.762336 18.677071  2 
20.474555  4.753342 17.081936  2 
18.865248  5.436291 19.599023  2 
19.067595  3.843997 18.883390  2 
18.274797  5.100171 17.952481  2 
19.004538  7.701778 17.490192  2 
19.592439  6.817220 16.081781  2 
21.972526  10.734430 14.676559  2 
20.244564  10.696860 14.904788  2 
20.671854  11.306067 12.690491  2 
19.804465  9.780173 12.706717  2 
21.916077  8.649377 12.033608  2 
22.750006  10.203803 11.949718  2 
21.167271  10.977312 10.187420  2 
20.309851  9.458101 10.232826  2 
23.194759  9.941333 9.274756  2 
21.775792  9.631525 8.304074  2 
23.140044  7.681017 8.265034  2 
21.631005  7.361327 9.024767  2 
23.309138  6.113861 10.003921  2 
22.496140  7.045117 11.161083  2 
24.957423  6.198626 11.237450  2 
26.239586  7.416426 12.382400  2 
25.023759  10.141270 11.824204  2 
26.684423  9.668108 12.123697  2 
26.237969  9.255177 14.549926  2 
24.565832  9.757629 14.312298  2 
25.318425  12.035662 13.623437  2 
27.021738  11.571118 13.775596  2 
26.693435  11.243109 16.260271  2 
25.016056  11.619193 15.955681  2 
25.674217  13.966487 15.244650  2 
27.359944  13.515928 15.479846  2 
26.646485  14.903604 17.306136  2 
27.007678  13.314218 17.930436  2 
24.233698  14.503539 17.348229  2 
24.992658  14.342559 18.904684  2 
23.953539  11.982498 17.226336  2 
23.248735  12.655188 18.570564  2 
24.852713  11.843907 18.720548  2 
28.763166  2.911990 19.753669  1 
27.792173  2.560503 18.901357  1 
28.073417  2.094908 17.478989  1 
29.269207  1.250881 17.041353  1 
30.555573  1.900552 17.147851  1 
30.532422  3.195088 16.412432  1 
31.915980  3.890040 16.749558  1 
32.184245  4.047897 18.549172  1 
32.584638  2.889521 19.489095  1 
33.649968  1.794144 19.170428  1 
33.653211  0.943827 17.861412  1 
34.200709  1.497468 16.506654  1 
33.512864  2.659147 15.882901  1 
33.720495  4.314136 16.858637  1 
32.538328  5.772453 17.056426  1 
32.183423  6.777930 18.207474  1 
30.985021  7.693441 17.874508  1 
26.473840  2.845573 19.299549  4 
25.357569  2.157530 18.698487  1 
24.949248  0.897293 19.532577  1 
24.249687  1.003555 20.895240  1 
24.133393  3.082922 18.446190  1 
24.199934  4.152282 17.438832  4 
24.252679  3.867448 16.093675  1 
24.628391  2.794116 15.645687  4 
23.876310  5.097077 15.224431  1 
22.686575  5.125492 14.205231  1 
22.682357  4.255464 12.924044  1 
21.416130  4.443437 12.037674  1 
21.346616  3.586352 10.745597  1 
21.320414  2.056953 10.854888  1 
22.480795  1.273904 11.544929  1 
24.001013  1.068856 11.343209  1 
25.230408  1.650185 11.254144  1 
25.916549  3.018775 11.112197  1 
26.913754  3.575643 12.205924  1 
27.623054  4.911400 11.766385  1 
28.633186  5.473646 12.784744  1 
29.246052  6.837612 12.390359  1 
30.215362  7.471789 13.405208  1 
29.567230  7.911316 14.717401  1 
28.974138  6.819932 15.588801  1 
29.797963  2.842540 19.496664  2 
28.582788  3.357745 20.722632  2 
28.061447  3.005835 16.870377  2 
27.282563  1.455243 17.128410  2 
29.178147  1.064432 15.962647  2 
29.340188  0.295720 17.555975  2 
31.303563  1.204430 16.785822  2 
30.832223  2.036984 18.174376  2 
29.823487  3.935790 16.790184  2 
30.473574  3.112467 15.312484  2 
31.626759  4.587834 15.787850  2 
32.550394  4.138566 15.722524  2 
31.373054  4.602244 19.008701  2 
33.122533  4.720387 18.838063  2 
31.651036  2.423901 19.711552  2 
32.856042  3.351973 20.474580  2 
33.477857  1.065177 19.977976  2 
34.669443  2.169449 19.333625  2 
32.681667  0.450271 17.787994  2 
34.325787  0.093399 18.036638  2 
34.115916  0.707627 15.734728  2 
35.186854  1.894616 16.599942  2 
32.514445  2.189219 15.780424  2 
33.595287  2.869042 14.813623  2 
34.787011  4.635420 16.970797  2 
33.771702  3.487686 17.718308  2 
31.361164  5.487853 17.188557  2 
32.322983  6.237884 16.083456  2 
33.108094  7.282325 18.325172  2 
31.813056  6.385094 19.168517  2 
31.252197  8.346875 17.052492  2 
30.707151  8.278587 18.753199  2 
30.066585  7.147574 17.651241  2 
25.631209  1.784748 17.720624  2 
25.836025  0.269480 19.677123  2 
24.257955  0.324866 18.901731  2 
24.757804  1.638538 21.625045  2 
24.203342  -0.004395 21.339003  2 
23.209474  1.334724 20.798559  2 
23.874025  3.586892 19.384097  2 
23.279653  2.456088 18.167670  2 
24.793862  5.434846 14.729914  2 
23.630855  5.891478 15.945748  2 
22.636341  6.165311 13.849852  2 
21.752718  4.942378 14.746862  2 
22.737350  3.222869 13.242047  2 
23.557076  4.476394 12.306397  2 
21.361414  5.496886 11.717564  2 
20.504970  4.280170 12.629342  2 
22.144734  3.870355 10.056925  2 
20.407065  3.877272 10.236179  2 
21.103782  1.632245 9.859839  2 
20.400476  1.805026 11.419359  2 
22.093928  0.236235 11.465786  2 
22.365680  1.451475 12.613204  2 
24.136738  -0.026098 11.404726  2 
26.025289  0.889352 11.222466  2 
25.181318  3.783497 10.867179  2 
26.549869  2.902003 10.218011  2 
27.696005  2.839881 12.440382  2 
26.362876  3.757959 13.136707  2 
26.849220  5.674194 11.612939  2 
28.157294  4.776457 10.823487  2 
29.443145  4.768447 12.999609  2 
28.043469  5.561080 13.678177  2 
28.455377  7.567565 12.177217  2 
29.805363  6.695266 11.458450  2 
30.650795  8.378747 12.948800  2 
31.071276  6.811826 13.592472  2 
28.795745  8.659296 14.518336  2 
30.335437  8.432991 15.294621  2 
28.110155  6.310430 15.197888  2 
28.542121  7.264680 16.485919  2 
29.719371  6.061791 15.837414  2 
35.898750  47.738616 6.659150  1 
35.462801  48.638536 6.669215  1 
34.478533  48.719090 6.511963  1 
33.930214  47.899725 6.344647  1 
32.945947  47.980279 6.187395  1 
32.397628  47.160924 6.020079  1 
31.413361  47.241478 5.862828  1 
30.865042  46.422113 5.695511  1 
29.880774  46.502667 5.538259  1 
29.332456  45.683312 5.370944  1 
28.348188  45.763866 5.213692  1 
27.799869  44.944501 5.046376  1 
26.815601  45.025056 4.889124  1 
26.267282  44.205690 4.721807  1 
25.283015  44.286245 4.564555  1 
24.734696  43.466889 4.397240  1 
23.750429  43.547444 4.239988  1 
23.202110  42.728079 4.072672  1 
22.217842  42.808633 3.915420  1 
21.669524  41.989278 3.748104  1 
20.685256  42.069832 3.590853  1 
20.136937  41.250467 3.423536  1 
19.152669  41.331021 3.266284  1 
18.604351  40.511666 3.098969  1 