NumberOfAtoms 7319
SpinPolarized yes
#FixSpin .true.
#TotalSpin
NumberOfSpecies 4


MD.TypeOfRun  nose
MD.FinalTimeStep 100
MD.LengthTimeStep 1.0  fs
MD.InitialTemperature 300 K
MD.TargetTemperature  300  K


%block ChemicalSpeciesLabel
1 6 C
2 8 O
3 7 N
4 1 H
%endblock ChemicalSpeciesLabel
PAO.BasisSize dzp 
 PAO.EnergyShift 0.02 Ry 
MeshCutoff          100 Ry
MaxSCFIterations    100
DM.NumberPulay       3
DM.Tolerance         1e-3
WriteDenchar	.true.
%block ProjectedDensityOfStates
-10.0 10.0 0.200 500 eV
%endblock ProjectedDensityOfStates
NetCharge 0.00

%block BandLines
1  1.000  1.000 1.000  L
20 0.00   0.00   0.00  \Gamma
25 2.00   0.000  0.00  X
30 2.00   2.00   2.00  \Gamma
%endblock BandLines


LongOutput .true.
WriteCoorXmol .true.
LatticeConstant 1 Ang
%block LatticeVectors
  30 0.0 0.0
  0.0 30 0.0
0.0 0.0 30
%endblock LatticeVectors




#UseSaveData .true.
%block kgrid_Monkhorst_Pack
1 0 0 0.0 
 0 1 0 0.0 
 0 0 1 0.0

%endblock kgrid_Monkhorst_Pack
WriteMDXmol .true.
AtomicCoordinatesFormat Ang
%block AtomicCoordinatesAndAtomicSpecies
4.528233  35.506698 22.675279  1
5.840180  35.908423 23.252690  1
7.046978  35.796652 22.673860  1
7.274629  35.184539 21.308597  1
8.300235  36.232419 23.377184  1
8.323618  37.612217 24.051259  1
9.723376  38.030329 24.543134  1
10.783276  38.431870 23.474136  1
12.108240  38.724659 24.184224  1
10.984771  37.404007 22.344413  1
12.133581  37.680713 21.355925  1
12.167874  36.547594 20.319594  1
13.242475  36.683417 19.223863  1
14.655219  36.643609 19.814005  1
13.084307  35.666896 18.057352  1
13.225098  34.161321 18.369384  1
12.099906  33.573082 19.222179  1
12.287556  32.122869 19.690818  1
13.606804  31.927472 20.443554  1
11.118803  31.757432 20.617299  1
3.759664  36.224422 22.974341  4
4.251142  34.518979 23.053056  4
4.542736  35.480688 21.585921  4
5.784412  36.329854 24.260752  4
6.504878  34.456243 21.040911  4
8.228265  34.648012 21.267778  4
7.294569  35.969939 20.542401  4
9.043551  36.210667 22.598569  4
8.622338  35.459432 24.085862  4
7.665026  37.580204 24.930230  4
7.920054  38.386825 23.389372  4
10.119518  37.246469 25.200410  4
9.579918  38.908855 25.191976  4
10.439148  39.367313 23.014673  4
12.551847  37.811241 24.588769  4
11.963211  39.431445 25.011116  4
12.826181  39.181588 23.496883  4
10.093211  37.438549 21.709692  4
11.113845  36.407546 22.765904  4
13.087294  37.696826 21.896336  4
11.995004  38.650985 20.868040  4
11.183562  36.426606 19.862488  4
12.395822  35.672296 20.925354  4
13.102960  37.677065 18.769839  4
15.292147  35.898620 19.328294  4
14.654358  36.419810 20.884726  4
15.140701  37.616797 19.681337  4
13.857203  35.910978 17.314853  4
12.128157  35.841894 17.547715  4
14.202301  33.979543 18.824396  4
13.232148  33.622367 17.411871  4
11.146481  33.687946 18.694958  4
11.992421  34.125999 20.143367  4
12.264262  31.455416 18.821212  4
14.425946  31.733607 19.743525  4
13.554215  31.076221 21.132291  4
13.872617  32.811675 21.035199  4
11.161437  32.336609 21.554011  4
11.151678  30.699064 20.879178  4
10.155924  31.962492 20.142867  4
0.014210  31.928593 21.965861  1
0.549444  32.346805 20.641243  1
1.399051  33.357355 20.394554  1
1.933808  34.289474 21.460217  1
1.852637  33.681179 19.000063  1
2.345841  32.536641 18.102540  1
2.984735  33.021789 16.786285  1
4.388850  33.692915 16.859977  1
4.780564  34.164115 15.456406  1
4.502460  34.846510 17.874712  1
5.820250  35.644524 17.868289  1
5.730609  36.741331 18.939781  1
6.986967  37.619267 19.096742  1
7.278662  38.416281 17.821838  1
6.958950  38.540387 20.349672  1
5.870697  39.632278 20.435823  1
4.445380  39.107279 20.615233  1
3.320936  40.150301 20.539864  1
3.370509  40.956986 19.239091  1
1.973868  39.418632 20.629094  1
-0.069490  30.839095 22.001247  4
-0.979344  32.361120 22.110273  4
0.658660  32.232257 22.790519  4
0.188379  31.753417 19.796005  4
1.260432  34.379261 22.316424  4
2.066876  35.303964 21.070278  4
2.908328  33.933202 21.817554  4
2.659725  34.376642 19.155548  4
1.083277  34.265309 18.480100  4
1.484204  31.909375 17.835189  4
3.049408  31.886592 18.634898  4
2.274461  33.674816 16.264324  4
3.091546  32.134616 16.142159  4
5.102486  32.914963 17.160139  4
4.161369  35.004797 15.132942  4
4.669294  33.354000 14.724516  4
5.828463  34.476829 15.428526  4
4.481964  34.403131 18.875681  4
3.670154  35.538106 17.747389  4
5.959503  36.115824 16.888311  4
6.671080  34.982327 18.058674  4
5.459361  36.304263 19.903031  4
4.912527  37.363678 18.581344  4
7.832039  36.931135 19.255693  4
7.394346  39.487027 18.013468  4
6.491314  38.305286 17.070643  4
8.214747  38.067540 17.371822  4
7.929290  39.055349 20.388473  4
6.922903  37.922708 21.256177  4
5.945205  40.282314 19.560090  4
6.102695  40.265482 21.303338  4
4.382535  38.538930 21.549686  4
4.196420  38.408008 19.831078  4
3.403108  40.833675 21.393385  4
4.055816  41.805217 19.336443  4
2.384659  41.358854 18.977644  4
3.709920  40.346092 18.394033  4
1.803842  38.794132 19.737027  4
1.151891  40.132495 20.696605  4
1.932800  38.766124 21.504775  4
20.529055  32.330960 17.028141  1
21.301281  33.183069 17.973427  1
20.808283  34.091450 18.831154  1
19.338295  34.432450 18.946506  1
21.705937  34.896935 19.725928  1
22.796176  34.166774 20.524055  1
23.499720  35.063046 21.562229  1
22.703296  35.464417 22.839723  1
23.565556  36.414606 23.675861  1
21.316378  36.079100 22.571398  1
20.561224  36.638705 23.792063  1
19.215314  37.204257 23.314784  1
18.307392  37.777104 24.419939  1
18.953771  38.981882 25.110158  1
16.863127  38.102012 23.942852  1
16.671981  39.190167 22.864276  1
17.198638  38.820250 21.476784  1
17.176591  39.934680 20.420606  1
17.917992  41.189015 20.891962  1
17.842712  39.404918 19.142509  1
20.990209  31.341768 16.964109  4
20.539435  32.787253 16.034776  4
19.495958  32.188357 17.344308  4
22.384882  33.036680 17.937623  4
18.790103  34.248207 18.019075  4
19.193483  35.492400 19.179926  4
18.876766  33.842641 19.748643  4
21.020381  35.361508 20.413983  4
22.142544  35.733552 19.166526  4
23.564758  33.816356 19.821312  4
22.398167  33.273707 21.019025  4
23.889800  35.955400 21.057332  4
24.389040  34.510434 21.904446  4
22.553140  34.549232 23.426640  4
23.678566  37.384230 23.184095  4
24.565897  35.994752 23.841304  4
23.121533  36.577847 24.662196  4
20.664615  35.272060 22.220918  4
21.394900  36.860457 21.816041  4
21.145427  37.447585 24.246254  4
20.410879  35.855871 24.542550  4
18.672791  36.449652 22.741466  4
19.514448  38.015574 22.653471  4
18.196549  36.984371 25.176396  4
18.298242  39.857437 25.127113  4
19.888148  39.286571 24.629915  4
19.184696  38.733304 26.151921  4
16.301197  38.430607 24.828578  4
16.370584  37.177868 23.614316  4
17.112413  40.126202 23.217635  4
15.593729  39.379590 22.770237  4
16.669959  37.932651 21.112313  4
18.239900  38.539171 21.528018  4
16.136600  40.193902 20.189363  4
17.255380  41.830680 21.481732  4
18.282531  41.782321 20.045291  4
18.785420  40.939208 21.514601  4
18.918265  39.225647 19.302947  4
17.743526  40.125576 18.329724  4
17.392708  38.462491 18.820645  4
4.208129  32.704352 30.232289  1
5.393941  33.396995 30.806820  1
6.564279  33.639906 30.194283  1
6.887072  33.194937 28.784227  1
7.689727  34.342177 30.898124  1
7.383022  35.635429 31.667667  1
8.645906  36.372090 32.156070  1
9.522071  37.101968 31.094470  1
10.753942  37.684743 31.793287  1
9.936528  36.234888 29.890404  1
10.934009  36.862614 28.898219  1
11.218041  35.844725 27.783613  1
12.175965  36.324102 26.676173  1
13.573649  36.616813 27.229794  1
12.238857  35.376564 25.444388  1
12.776299  33.943167 25.645566  1
11.876625  33.029942 26.479801  1
12.451309  31.652287 26.840015  1
13.805507  31.760563 27.546864  1
11.455002  30.937760 27.764524  1
3.292941  33.176912 30.598870  4
4.211092  31.656910 30.545244  4
4.184902  32.751265 29.143782  4
5.271903  33.725388 31.843240  4
6.321457  32.309508 28.483093  4
7.944495  32.928993 28.683824  4
6.672504  34.004786 28.075416  4
8.381393  34.563590 30.103260  4
8.228912  33.636988 31.542695  4
6.791072  35.378004 32.556872  4
6.766680  36.318031 31.071721  4
9.257289  35.678929 32.746930  4
8.306648  37.140513 32.868680  4
8.929712  37.942335 30.710444  4
11.434415  36.894946 32.121852  4
10.464720  38.276148 32.671307  4
11.301133  38.355014 31.123973  4
9.041457  36.075658 29.280127  4
10.335548  35.282090 30.237115  4
11.872178  37.092742 29.416629  4
10.529904  37.791861 28.483656  4
10.280791  35.500371 27.341532  4
11.688626  35.022882 28.320432  4
11.766281  37.273507 26.297057  4
14.361290  36.095377 26.678135  4
13.673829  36.333942 28.281687  4
13.785469  37.689195 27.155507  4
12.891854  35.859537 24.703725  4
11.250203  35.328000 24.970276  4
13.784822  33.994103 26.064245  4
12.883715  33.485692 24.652323  4
10.905427  32.925254 25.983828  4
11.667195  33.476981 27.440089  4
12.566181  31.057603 25.926009  4
14.617995  31.830986 26.816438  4
14.002449  30.883615 28.174500  4
13.857507  32.644647 28.193551  4
11.384312  31.448231 28.738749  4
11.770724  29.910250 27.949859  4
10.453508  30.914202 27.327806  4
1.003939  30.155772 30.925238  1
2.230895  29.679013 30.230060  1
2.424046  29.583472 28.904367  1
1.370260  29.920230 27.871613  1
3.714604  29.071229 28.332286  1
5.035432  29.638298 28.873223  1
6.269400  29.199200 28.060452  1
6.472926  29.823098 26.647402  1
7.704540  29.181501 26.001679  1
5.251902  29.722489 25.713404  1
5.457559  30.178947 24.256424  1
4.134683  29.996488 23.497593  1
4.149578  30.441201 22.022517  1
5.131453  29.607495 21.193932  1
2.741486  30.483247 21.363282  1
1.954233  29.162250 21.224924  1
1.473420  28.558540 22.545415  1
0.832358  27.165575 22.463933  1
1.751731  26.147937 21.782483  1
0.522597  26.689963 23.890726  1
1.283611  30.725119 31.815682  4
0.402747  29.296336 31.233496  4
0.397165  30.809128 30.298709  4
3.042708  29.373525 30.896798  4
0.353471  29.801301 28.254473  4
1.445297  29.263447 26.998713  4
1.496105  30.955128 27.528890  4
3.634714  29.308422 27.285104  4
3.731860  27.974814 28.364858  4
5.174730  29.273784 29.900396  4
5.005324  30.732104 28.933689  4
6.287073  28.103902 28.002245  4
7.153671  29.472987 28.657519  4
6.692090  30.888479 26.794073  4
7.518652  28.135198 25.745803  4
8.568399  29.221597 26.677305  4
7.988593  29.714367 25.089523  4
4.495154  30.418311 26.090377  4
4.865923  28.703535 25.713126  4
6.227418  29.558862 23.782417  4
5.784740  31.223240 24.223762  4
3.324053  30.498860 24.029530  4
3.980150  28.919592 23.535878  4
4.510767  31.481578 22.012703  4
4.667130  29.175314 20.302739  4
5.564357  28.781702 21.765937  4
5.958065  30.239554 20.850998  4
2.876945  30.880136 20.347221  4
2.117565  31.222511 21.881731  4
2.553866  28.445499 20.657727  4
1.066304  29.366890 20.610875  4
0.800207  29.264604 23.043846  4
2.302215  28.417686 23.222995  4
-0.109805  27.232561 21.907075  4
1.634335  26.188922 20.694753  4
1.522754  25.123893 22.099745  4
2.807336  26.334290 22.013753  4
1.450693  26.511765 24.457802  4
-0.039642  25.755449 23.871343  4
-0.064834  27.431084 24.438389  4
2.733260  34.523213 26.179207  1
4.190099  34.217449 26.168289  1
4.796538  33.190849 25.550048  1
4.061299  32.121148 24.771836  1
6.282726  32.990973 25.630693  1
7.201874  34.193531 25.370337  1
8.692302  33.814372 25.265714  1
9.165548  33.058227 23.988347  1
10.650383  32.716648 24.143480  1
8.348866  31.798732 23.641825  1
8.876973  30.930193 22.484162  1
7.932013  29.732930 22.303256  1
8.292468  28.771301 21.154698  1
9.648177  28.098499 21.389399  1
7.185528  27.725555 20.838189  1
6.812950  26.696236 21.927055  1
6.107511  27.281693 23.151367  1
5.869326  26.320152 24.324678  1
7.165684  25.654661 24.795620  1
5.258948  27.115754 25.487584  1
2.584541  35.605811 26.145641  4
2.286859  34.136665 27.099201  4
2.211412  34.096508 25.322944  4
4.806807  34.917346 26.739881  4
3.034254  31.980488 25.118220  4
4.552429  31.147770 24.873203  4
4.038454  32.379831 23.705595  4
6.473674  32.236912 24.886270  4
6.546991  32.511383 26.581294  4
7.101845  34.894970 26.210179  4
6.897893  34.741087 24.471030  4
8.984474  33.263148 26.168024  4
9.260692  34.757158 25.304076  4
9.071804  33.756813 23.147055  4
10.803750  31.952744 24.910101  4
11.230957  33.605022 24.422862  4
11.066039  32.347897 23.201188  4
7.371527  32.133735 23.279162  4
8.232995  31.174451 24.527318  4
9.878262  30.558298 22.731115  4
8.942721  31.517511 21.562534  4
6.903120  30.080344 22.188641  4
8.031474  29.201100 23.247881  4
8.383515  29.388038 20.246796  4
9.594489  27.008533 21.313933  4
10.066963  28.334513 22.371970  4
10.366688  28.437695 20.635027  4
7.527962  27.153504 19.964263  4
6.277170  28.244514 20.506309  4
7.708522  26.139640 22.215425  4
6.133666  25.962001 21.472276  4
5.167636  27.750286 22.839551  4
6.697777  28.073646 23.587546  4
5.154944  25.546368 24.019446  4
7.380675  24.762258 24.198951  4
7.098636  25.341199 25.843951  4
8.024673  26.330937 24.710161  4
5.983429  27.840331 25.893548  4
4.966449  26.448075 26.299036  4
4.374868  27.672853 25.167718  4
36.687182  0.666562 29.411751  1
36.110219  0.526815 28.607019  1
35.121315  0.422569 28.712805  1
34.709363  0.458069 29.623319  1
33.720449  0.353821 29.729101  1
33.308498  0.389321 30.639615  1
32.319593  0.285075 30.745401  1
31.907641  0.320575 31.655915  1
30.918727  0.216327 31.761697  1
30.506776  0.251827 32.672211  1
29.517871  0.147581 32.777998  1
29.105920  0.183081 33.688512  1
28.117006  0.078833 33.794294  1
27.705054  0.114333 34.704808  1
26.716149  0.010087 34.810594  1
26.304198  0.045587 35.721108  1
25.315284  -0.058661 35.826890  1
24.903332  -0.023161 36.737404  1
23.914428  -0.127407 36.843190  1
23.502476  -0.091907 37.753704  1
22.513562  -0.196155 37.859486  1
22.101611  -0.160655 38.770000  1
32.765565  3.397403 29.304257  1
32.155137  3.552257 28.527465  1
31.170787  3.407951 28.628560  1
30.796855  3.108791 29.506443  1
29.812495  2.964484 29.607534  1
29.438563  2.665324 30.485417  1
28.454213  2.521017 30.586512  1
28.080281  2.221857 31.464395  1
27.095921  2.077551 31.565486  1
26.721990  1.778390 32.443368  1
25.737639  1.634084 32.544463  1
25.363708  1.334924 33.422346  1
24.379348  1.190617 33.523437  1
24.005416  0.891457 34.401320  1
23.021066  0.747151 34.502415  1
22.647134  0.447990 35.380298  1
21.662774  0.303684 35.481388  1
21.288843  0.004524 36.359271  1
20.304492  -0.139783 36.460366  1
19.930560  -0.438943 37.338249  1
18.946200  -0.583250 37.439340  1
18.572269  -0.882410 38.317223  1
27.200459  2.488054 0.809527  1
26.916472  3.445925 0.852353  1
27.603586  4.172309 0.837147  1
28.574696  3.940825 0.779115  1
29.261819  4.667213 0.763909  1
30.232920  4.435726 0.705878  1
30.920043  5.162114 0.690672  1
31.891144  4.930627 0.632640  1
32.578267  5.657015 0.617434  1
33.549368  5.425528 0.559403  1
34.236491  6.151915 0.544196  1
35.207592  5.920429 0.486165  1
35.894715  6.646816 0.470959  1
36.865816  6.415330 0.412927  1
37.552939  7.141717 0.397721  1
38.524040  6.910230 0.339690  1
39.211163  7.636618 0.324483  1
26.188687  1.234048 -1.091576  1
26.085262  2.224142 -1.186525  1
26.887411  2.818467 -1.128857  1
27.792995  2.422698 -0.976239  1
28.595154  3.017024 -0.918570  1
29.500728  2.621254 -0.765954  1
30.302887  3.215580 -0.708285  1
31.208461  2.819810 -0.555668  1
32.010620  3.414136 -0.497999  1
32.916194  3.018366 -0.345382  1
33.718353  3.612692 -0.287713  1
34.623928  3.216922 -0.135097  1
35.426087  3.811248 -0.077428  1
36.331661  3.415478 0.075189  1
37.133820  4.009804 0.132858  1
38.039394  3.614034 0.285475  1
38.841553  4.208360 0.343144  1
30.256240  12.161140 40.347048  1
31.232552  12.370728 40.293317  1
31.533331  13.294688 40.057050  1
30.857795  14.009068 39.874513  1
31.158571  14.933037 39.638243  1
30.483037  15.647408 39.455709  1
30.783814  16.571377 39.219439  1
30.108280  17.285748 39.036905  1
30.409056  18.209716 38.800635  1
29.733522  18.924087 38.618101  1
30.034298  19.848056 38.381831  1
29.358765  20.562427 38.199297  1
29.659541  21.486396 37.963027  1
28.984007  22.200767 37.780493  1
29.284783  23.124736 37.544223  1
28.609250  23.839107 37.361689  1
28.910026  24.763075 37.125419  1
29.779859  7.377425 39.735949  1
30.759249  7.567642 39.668034  1
31.074387  8.478549 39.401711  1
30.410133  9.199248 39.203301  1
30.725269  10.110164 38.936976  1
30.061017  10.830855 38.738569  1
30.376153  11.741771 38.472244  1
29.711900  12.462461 38.273837  1
30.027036  13.373377 38.007512  1
29.362784  14.094067 37.809105  1
29.677920  15.004983 37.542780  1
29.013668  15.725673 37.344372  1
29.328804  16.636589 37.078047  1
28.664552  17.357280 36.879640  1
28.979688  18.268196 36.613315  1
28.315435  18.988886 36.414908  1
28.630571  19.899802 36.148583  1
13.297599  -0.014000 36.451023  1
13.254797  0.074844 34.950491  1
12.140690  -0.428557 34.273970  1
12.104432  -0.334447 32.896626  1
13.082010  0.222585 32.154879  3
14.155717  0.715348 32.794986  1
15.155468  1.310457 32.036878  1
16.299446  1.857984 32.621606  1
16.462181  1.798844 33.997789  1
15.475997  1.202067 34.782388  1
14.304268  0.662532 34.200407  1
12.379378  -0.454386 36.854505  4
13.397592  0.984666 36.888372  4
14.134625  -0.642159 36.772206  4
11.310551  -0.882542 34.804598  4
11.256521  -0.712494 32.332662  4
15.035229  1.355619 30.956986  4
17.055469  2.327602 31.998019  4
17.350125  2.218856 34.462910  4
15.628447  1.167036 35.857838  4
14.506005  -1.522758 32.798268  1
15.784291  -0.782154 32.517530  1
16.133422  -0.512637 31.191712  1
17.303987  0.176508 30.942503  1
18.137779  0.615721 31.905838  3
17.809422  0.367453 33.184878  1
18.653879  0.837514 34.182034  1
18.382734  0.633914 35.536806  1
17.248007  -0.070339 35.911346  1
16.385632  -0.558075 34.930163  1
16.641891  -0.339260 33.555682  1
13.955482  -1.739271 31.876361  4
13.849292  -0.920303 33.434178  4
14.718498  -2.478061 33.288777  4
15.506898  -0.826715 30.363688  4
17.611352  0.407160 29.926504  4
19.547373  1.386481 33.893992  4
19.059568  1.027467 36.290453  4
17.029165  -0.237385 36.962724  4
15.504537  -1.108073 35.249908  4
3.730271  30.397922 39.871240  1
4.423607  29.079727 40.004934  1
5.774354  29.080947 40.165985  3
6.436459  27.910179 40.290349  1
5.842016  26.659504 40.267880  1
4.450213  26.630301 40.103134  1
3.478010  25.581831 40.027606  1
3.544526  24.174429 40.090096  1
2.368067  23.423938 39.978989  1
1.137678  24.053907 39.807995  1
1.044832  25.447005 39.743347  1
2.231442  26.181025 39.855979  1
2.438223  27.539253 39.827976  3
1.705531  28.223858 39.714197  4
3.772468  27.841518 39.975360  1
4.445392  31.224575 39.924356  4
3.000259  30.522139 40.676924  4
3.210780  30.453597 38.909709  4
7.511741  28.006410 40.414960  4
6.428301  25.755513 40.372850  4
4.498832  23.673765 40.223206  4
2.417212  22.338841 40.026864  4
0.234496  23.453639 39.723629  4
0.084386  25.933868 39.609647  4
8.322834  26.989574 38.736101  1
6.846203  27.053281 38.508660  1
6.274157  28.278549 38.360546  3
4.943028  28.377126 38.153360  1
4.073388  27.302119 38.074976  1
4.637762  26.027637 38.224266  1
4.109779  24.696764 38.210740  1
2.819103  24.153893 38.041753  1
2.645101  22.765538 38.084547  1
3.732271  21.919921 38.291794  1
5.021316  22.432805 38.461601  1
5.176215  23.823292 38.416125  1
6.306817  24.592891 38.549480  3
7.231815  24.221959 38.708403  4
6.011812  25.932215 38.437791  1
8.760906  27.992267 38.752708  4
8.802182  26.417852 37.935579  4
8.535042  26.505455 39.694280  4
4.573097  29.393348 38.046300  4
3.013732  27.446283 37.906771  4
1.965071  24.804600 37.879607  4
1.650903  22.345048 37.954543  4
3.577063  20.843732 38.321880  4
5.865549  21.770601 38.623227  4
15.029509  39.328899 11.901006  1
15.530770  37.932863 11.686641  1
16.713836  37.698377 11.003708  1
17.225645  36.398117 10.946462  1
18.457343  36.156574 10.313277  1
19.042698  34.880643 10.333764  1
20.298087  34.611624 9.781140  1
20.911994  33.405408 9.822188  3
20.240011  32.410439 10.431755  1
18.980226  32.557027 10.988273  1
18.365939  33.816205 10.947815  1
17.106054  34.049266 11.531799  1
16.519969  35.341664 11.560347  1
15.290886  35.668086 12.179468  1
14.433103  34.667362 12.897020  1
14.815465  36.939897 12.253063  3
15.617857  40.063760 11.342812  4
15.097367  39.577332 12.965550  4
13.986121  39.410738 11.583564  4
17.255430  38.527466 10.558525  4
18.987394  36.975657 9.835163  4
20.874348  35.390222 9.288874  4
20.758194  31.455987 10.469682  4
18.499110  31.707792 11.463060  4
16.597159  33.210938 11.996035  4
14.643708  33.631382 12.626051  4
13.379102  34.846172 12.656088  4
14.564442  34.780961 13.978151  4
20.879312  36.270877 13.050322  1
21.653447  36.849407 14.195915  1
21.112834  36.918199 15.471769  1
21.859316  37.467796 16.540341  1
21.381985  37.576107 17.881150  1
20.116007  37.134629 18.228699  2
22.139081  38.125860 18.934514  1
21.633119  38.201493 20.188517  3
22.385960  38.732755 21.169817  1
23.662097  39.213854 20.976563  1
24.206469  39.147941 19.694316  1
25.601376  39.671846 19.474838  1
23.432978  38.591549 18.641186  1
23.911841  38.488242 17.316723  1
23.158429  37.936491 16.255184  1
23.629867  37.825901 14.923957  1
24.989455  38.279017 14.468072  1
22.891282  37.293907 13.917578  3
19.886965  35.929244 13.359792  4
21.419539  35.415895 12.632035  4
20.752151  37.026963 12.269329  4
20.108088  36.537774 15.612266  4
19.647032  36.772195 17.469697  4
21.915964  38.760497 22.148417  4
24.214832  39.629754 21.811612  4
26.037865  40.060656 20.400659  4
25.589710  40.491688 18.749140  4
26.256071  38.871057 19.115618  4
24.912340  38.854972 17.116179  4
25.617261  38.703512 15.251081  4
24.876274  39.042380 13.691193  4
25.532018  37.427951 14.043199  4
36.772671  19.405360 38.590257  1
35.817839  18.987222 37.458805  1
35.242731  20.248654 36.806471  1
36.559761  18.104237 36.434863  1
37.158000  16.852342 36.915474  3
36.659413  15.706396 37.446771  1
37.409752  14.725449 37.462932  2
35.193080  15.589787 37.907011  1
35.095417  14.811522 39.248162  1
35.825716  15.567703 40.366372  1
33.645329  14.565895 39.693010  1
34.504510  14.885077 36.826699  3
33.950294  15.413249 35.694842  1
33.746490  14.663305 34.743621  2
33.676706  16.933544 35.603506  1
32.291035  17.175851 34.940717  1
31.152781  16.593966 35.785897  1
32.014558  18.665500 34.699625  1
34.736291  17.469415 34.749189  3
35.994741  17.891850 35.014196  1
36.745722  18.023094 34.039594  2
36.252741  20.021626 39.331612  4
37.614843  19.990973 38.203626  4
37.178045  18.532728 39.112231  4
34.985788  18.467134 37.927974  4
36.018897  20.820451 36.287454  4
34.788156  20.901759 37.559535  4
34.462284  19.997873 36.083175  4
37.460806  18.701795 36.212545  4
38.097027  16.686450 36.563900  4
34.748001  16.563174 38.049545  4
35.573388  13.829399 39.138637  4
35.349711  16.533233 40.570079  4
36.872745  15.752195 40.109179  4
35.817325  14.985534 41.294417  4
33.057077  15.489877 39.692060  4
33.616814  14.157476 40.710966  4
33.146513  13.840068 39.043108  4
34.772958  13.914413 36.687084  4
33.699443  17.415777 36.575783  4
32.265464  16.679025 33.961065  4
31.100245  17.077790 36.766682  4
31.274349  15.517815 35.940723  4
30.189508  16.741187 35.284439  4
32.084452  19.239441 35.629288  4
31.007359  18.810523 34.291872  4
32.718747  19.091317 33.977849  4
34.649185  17.234205 33.764248  4
30.493426  10.694934 33.143310  1
31.477346  9.961887 32.215265  1
30.678675  9.120175 31.214691  1
32.393612  10.976949 31.502048  1
33.229397  11.849926 32.336009  3
34.250179  11.636017 33.205666  1
34.938130  12.615218 33.511307  2
34.614362  10.224616 33.706535  1
34.944949  10.245503 35.224492  1
33.717061  10.674385 36.039286  1
35.427264  8.884721 35.750441  1
35.772427  9.819808 32.911026  3
35.783432  9.223320 31.681675  1
36.812322  9.288309 31.013891  2
34.496401  8.566060 31.128456  1
34.851526  7.213139 30.449063  1
35.435097  6.214117 31.454022  1
33.638705  6.571204 29.763057  1
33.978952  9.502090 30.130544  3
33.171693  10.584311 30.228049  1
33.143990  11.337881 29.247024  2
29.846403  9.982659 33.666516  4
29.847560  11.377273 32.578552  4
31.022442  11.279716 33.902550  4
32.035571  9.266511 32.837967  4
30.103475  9.751501 30.529609  4
29.976740  8.460320 31.736388  4
31.338642  8.483551 30.619462  4
31.671037  11.701786 31.088675  4
33.233191  12.820894 32.035836  4
33.802472  9.530551 33.548409  4
35.745894  10.971309 35.416092  4
32.902170  9.948522 35.942318  4
33.342870  11.650761 35.718155  4
33.969639  10.757285 37.102108  4
34.742825  8.075486 35.473914  4
35.499290  8.896500 36.845213  4
36.422640  8.639234 35.367067  4
36.628798  10.342967 33.074362  4
33.754747  8.395846 31.902643  4
35.609517  7.384959 29.672444  4
34.709803  5.970470 32.237200  4
36.338308  6.603933 31.932672  4
35.713706  5.281925 30.949617  4
32.813423  6.425099 30.467421  4
33.902797  5.591032 29.349218  4
33.277875  7.185269 28.931859  4
34.516221  9.546197 29.268908  4
33.935848  23.268669 27.596214  1
33.396159  21.844324 27.380105  1
32.229221  21.903442 26.389013  1
34.522876  20.918251 26.878640  1
35.706965  20.755485 27.731610  3
35.919740  20.238497 28.969150  1
37.088332  19.977597 29.272220  2
34.757390  19.883488 29.917022  1
35.083666  20.310083 31.374924  1
35.249081  21.833057 31.468341  1
34.006834  19.874655 32.380814  1
34.597322  18.434443 29.805368  3
33.864439  17.735772 28.887783  1
34.129928  16.549062 28.714555  2
32.793583  18.460801 28.038023  1
31.519863  17.574605 27.936153  1
30.881572  17.345458 29.310422  1
30.466464  18.176648 26.997263  1
33.392254  18.623928 26.713365  3
34.198174  19.576378 26.188283  1
34.767618  19.289265 25.127932  2
33.147211  23.932618 27.966270  4
34.317390  23.695305 26.661289  4
34.748034  23.279801 28.330041  4
32.985043  21.517809 28.332624  4
32.566087  22.203072 25.391262  4
31.474192  22.624264 26.721634  4
31.733716  20.932607 26.304764  4
34.943606  21.489939 26.033335  4
36.586141  20.800925 27.223789  4
33.843682  20.375546 29.618844  4
36.028942  19.849246 31.689728  4
34.312890  22.350046 31.230440  4
36.021429  22.195980 30.784074  4
35.548298  22.126792 32.480491  4
33.004320  20.179130 32.061371  4
34.191037  20.325287 33.364100  4
34.008088  18.789156 32.521184  4
35.362681  17.873213 30.170050  4
32.526069  19.428792 28.450114  4
31.793274  16.591693 27.528303  4
30.550462  18.289253 29.755846  4
31.577977  16.864927 30.003936  4
30.008689  16.688655 29.222598  4
30.187953  19.188937 27.307536  4
29.556537  17.565281 26.994750  4
30.828494  18.219784 25.965160  4
33.469182  17.767040 26.172214  4
23.520747  0.177899 31.520603  1
23.961577  0.985163 30.287430  1
24.856211  0.101134 29.412429  1
22.727501  1.490294 29.512530  1
21.780698  2.359399 30.222696  3
21.861391  3.597416 30.774837  1
20.794960  4.166242 31.029171  2
23.210008  4.316277 30.974892  1
23.254045  5.034569 32.351858  1
23.148918  4.016983 33.495976  1
24.531936  5.863621 32.553473  1
23.307147  5.268775 29.869845  3
23.781999  5.049402 28.607461  1
23.457049  5.834294 27.720261  2
24.631838  3.791476 28.307647  1
25.824027  4.174326 27.385586  1
26.769655  5.167043 28.070305  1
26.632790  2.948446 26.942034  1
23.735186  2.874007 27.604796  3
22.847202  1.951722 28.044400  1
22.032904  1.534022 27.211639  2
24.389462  -0.174300 32.087179  4
22.934394  -0.701871 31.230990  4
22.909824  0.784800 32.196411  4
24.583024  1.799631 30.652623  4
24.295324  -0.735374 28.982982  4
25.684520  -0.312405 29.998243  4
25.295737  0.674465 28.591910  4
22.127857  0.571328 29.392901  4
20.806230  2.117951 30.064543  4
24.035298  3.621378 30.931225  4
22.402807  5.722726 32.434628  4
24.011089  3.341072 33.507441  4
22.242420  3.410594 33.412249  4
23.108899  4.528373 34.464035  4
25.434221  5.277198 32.349084  4
24.599940  6.224449 33.587412  4
24.541138  6.745786 31.905619  4
22.640334  6.036168 29.884458  4
25.011612  3.325357 29.211469  4
25.439232  4.655010 26.475593  4
27.218648  4.731279 28.968804  4
26.250749  6.086239 28.357823  4
27.581255  5.453234 27.391755  4
26.999647  2.380170 27.802874  4
27.501877  3.253356 26.347507  4
26.033674  2.278805 26.316891  4
23.511622  3.144149 26.650824  4
9.736659  2.107789 16.290871  1
11.053796  2.709522 16.810286  1
10.727238  3.833734 17.798724  1
11.920233  1.612406 17.461589  1
12.320822  0.471042 16.629164  3
13.091061  0.331345 15.519536  1
13.474277  -0.810432 15.245644  2
13.565774  1.545008 14.696604  1
13.465383  1.253146 13.173890  1
12.005546  1.015376 12.764157  1
14.035395  2.387677 12.308498  1
14.949940  1.773053 15.108793  3
15.403579  2.504765 16.169939  1
16.542942  2.292635 16.576912  2
14.460602  3.505104 16.880298  1
15.233537  4.816812 17.196651  1
15.702139  5.517270 15.916686  1
14.393520  5.802512 18.019078  1
14.064409  2.849366 18.126402  3
13.072042  1.977519 18.422150  1
13.168206  1.383475 19.503311  2
9.118706  2.875638 15.813106  4
9.150290  1.670301 17.107238  4
9.921853  1.324388 15.549077  4
11.544240  3.172179 15.956861  4
10.249610  3.444815 18.703919  4
10.047962  4.563779 17.344956  4
11.630644  4.373660 18.094495  4
11.212654  1.131938 18.159346  4
12.222509  -0.427876 17.093036  4
12.972122  2.421021 14.911252  4
14.033713  0.344695 12.935700  4
11.398576  1.914858 12.915306  4
11.554849  0.200516 13.338032  4
11.942349  0.740315 11.705570  4
13.615673  3.360905 12.584987  4
13.806445  2.218462 11.248876  4
15.124954  2.446054 12.394920  4
15.616364  1.051074 14.847316  4
13.583688  3.739231 16.284819  4
16.126233  4.577707 17.790899  4
14.852074  5.817340 15.295289  4
16.352999  4.872503 15.318766  4
16.276516  6.417983 16.161304  4
13.451882  6.041549 17.514355  4
14.938830  6.741148 18.171872  4
14.160956  5.400016 19.010074  4
14.795555  2.795011 18.830313  4
26.926879  4.037946 36.188295  1
27.983187  3.900948 35.078264  1
28.163324  2.415572 34.748552  1
27.559777  4.712547 33.837054  1
27.357759  6.157873 33.999339  3
28.168707  7.197681 34.323715  1